&GLOBAL
	PROJECT Ni_bulk
	RUN_TYPE ENERGY
	PRINT_LEVEL MEDIUM
&END GLOBAL

&FORCE_EVAL
	METHOD Quickstep
	STRESS_TENSOR ANALYTICAL

	&DFT
		BASIS_SET_FILE_NAME BASIS_MOLOPT
		POTENTIAL_FILE_NAME GTH_POTENTIALS
		CHARGE 0
		MULTIPLICITY 65
		UKS .TRUE.
		
		&QS
			EPS_DEFAULT 1.0E-12
			EXTRAPOLATION ASPC
	    &END QS

		&MGRID
			NGRIDS 5
			CUTOFF 600.0
			REL_CUTOFF 60.0
		&END MGRID

		&SCF
			SCF_GUESS ATOMIC
			EPS_SCF 1.0E-8
			MAX_SCF 500
			ADDED_MOS 30
			&DIAGONALIZATION
				ALGORITHM STANDARD
			&END DIAGONALIZATION
			&MIXING
				METHOD BROYDEN_MIXING
				ALPHA 5.0E-01
				BETA 4.0E-01
				NBUFFER 8
			&END MIXING
			&SMEAR
				ELECTRONIC_TEMPERATURE [K] 300
				METHOD FERMI_DIRAC
			&END SMEAR
		&END SCF

		&XC
			&XC_FUNCTIONAL PBE
			&END XC_FUNCTIONAL
		&END XC
	&PRINT
      &E_DENSITY_CUBE  ON
      &END E_DENSITY_CUBE
   &HIRSHFELD
   SHAPE_FUNCTION  DENSITY
   &END HIRSHFELD
    &END PRINT
	&END DFT

	&SUBSYS
		&CELL
			ABC 3.50579800 3.50579800 3.50579800
			ALPHA_BETA_GAMMA 90.000 90.000 90.000
			MULTIPLE_UNIT_CELL 2 2 2
		&END CELL
		&COORD
		Ni         0.00000        0.00000        0.00000
		Ni         0.00000        1.75290        1.75290
		Ni         1.75290        0.00000        1.75290
		Ni         1.75290        1.75290        0.00000
		&END COORD
		&TOPOLOGY
       		  MULTIPLE_UNIT_CELL 2 2 2 
      		&END TOPOLOGY	
		&KIND Ni
			ELEMENT	Ni
			BASIS_SET DZVP-MOLOPT-SR-GTH
			POTENTIAL GTH-PBE-q18
			MAGNETIZATION 2
		&END KIND
	&END SUBSYS
&END FORCE_EVAL
