 # Version information for this restart file 
 # current date 2023-06-05 15:20:54.457
 # current working dir /work4/scd/scarf1157/work/masters/xiangzhuochun/pt3ni/yike-111/scarf/geo_opt/restart/Ni-1_Pt-0_yike_4e-2_4e-3_16_100_2000_8-8-1_pbe-d3_tzvp/MUST_CONVERGE_eps-5E-3_5E-4_4E-4_3E-4_2E-4_1E-4_5E-5_5E-6
 # Program compiled at                              Wed 31 May 18:44:54 BST 2023
 # Program compiled on                                     cn1108.scarf.rl.ac.uk
 # Program compiled for                                                    local
 # Source code revision number                                       git:3f1a084
 &GLOBAL
   PRINT_LEVEL  MEDIUM
   PROJECT_NAME Pt3Ni
   RUN_TYPE  GEO_OPT
 &END GLOBAL
 &MOTION
   &GEO_OPT
     TYPE  MINIMIZATION
     OPTIMIZER  BFGS
     MAX_ITER  200
     STEP_START_VAL  4
   &END GEO_OPT
   &PRINT
     &TRAJECTORY  ON
       UNIT angstrom
       FORMAT  XMOL
     &END TRAJECTORY
     &FORCES  SILENT
       UNIT hartree*bohr^-1
       FORMAT  XMOL
     &END FORCES
   &END PRINT
 &END MOTION
 &FORCE_EVAL
   METHOD  QS
   STRESS_TENSOR  ANALYTICAL
   &DFT
     BASIS_SET_FILE_NAME BASIS_MOLOPT_UCL
     POTENTIAL_FILE_NAME GTH_POTENTIALS
     UKS  T
     MULTIPLICITY  16
     NELEC_ALPHA     5.4750000000000000E+02
     NELEC_BETA     5.3250000000000000E+02
     CHARGE  0
     &SCF
       MAX_SCF  60
       EPS_SCF     5.0000000000000001E-03
       EPS_SCF_ARRAY     5.0000000000000001E-03    5.0000000000000001E-04    4.0000000000000002E-04    2.9999999999999997E-04 \
           2.0000000000000001E-04    1.0000000000000000E-04    5.0000000000000002E-05    5.0000000000000004E-06
       SCF_GUESS  RESTART
       ADDED_MOS  100
       MUST_CONVERGE  T
       &DIAGONALIZATION  T
         ALGORITHM  STANDARD
       &END DIAGONALIZATION
       &OUTER_SCF  T
         EPS_SCF     5.0000000000000004E-06
         MAX_SCF  8
       &END OUTER_SCF
       &SMEAR  T
         METHOD  FERMI_DIRAC
         ELECTRONIC_TEMPERATURE     2.0000000000000000E+03
       &END SMEAR
       &MIXING  T
         METHOD  BROYDEN_MIXING
         ALPHA     4.0000000000000001E-02
         BETA     4.0000000000000001E-03
         NBUFFER  16
       &END MIXING
     &END SCF
     &QS
       EPS_DEFAULT     1.0000000000000000E-14
       METHOD  GPW
     &END QS
     &MGRID
       NGRIDS  4
       CUTOFF     5.0000000000000000E+02
       REL_CUTOFF     6.0000000000000000E+01
     &END MGRID
     &XC
       DENSITY_CUTOFF     1.0000000000000000E-10
       GRADIENT_CUTOFF     1.0000000000000000E-10
       TAU_CUTOFF     1.0000000000000000E-10
       &XC_FUNCTIONAL  NO_SHORTCUT
         &PBE  T
           PARAMETRIZATION  ORIG
         &END PBE
       &END XC_FUNCTIONAL
       &VDW_POTENTIAL
         POTENTIAL_TYPE  PAIR_POTENTIAL
         &PAIR_POTENTIAL
           TYPE  DFTD3(BJ)
           PARAMETER_FILE_NAME dftd3.dat
           REFERENCE_FUNCTIONAL PBE
         &END PAIR_POTENTIAL
       &END VDW_POTENTIAL
     &END XC
     &KPOINTS
       SCHEME MONKHORST-PACK 8 8 1
     &END KPOINTS
     &PRINT
       &E_DENSITY_CUBE  ON
       &END E_DENSITY_CUBE
       &HIRSHFELD  SILENT
         SHAPE_FUNCTION  DENSITY
       &END HIRSHFELD
     &END PRINT
   &END DFT
   &SUBSYS
     &CELL
       A     9.3780000000000001E+00    0.0000000000000000E+00    0.0000000000000000E+00
       B    -4.6890000000000001E+00    8.1219999999999999E+00    0.0000000000000000E+00
       C     0.0000000000000000E+00    0.0000000000000000E+00    2.9061899185200001E+01
       MULTIPLE_UNIT_CELL  1 1 1
     &END CELL
     &COORD
Pt_1   -3.1010745216988411E+00    5.4149339038916011E+00    8.1066143742965231E+00
Pt_1    1.5904089430146284E+00    5.4151553056165076E+00    8.1059793027752463E+00
Pt_1   -7.2582125786230733E-01    1.3538234024130575E+00    8.1608173109948829E+00
Pt_1    3.9620458522121762E+00    1.3552647512987923E+00    8.1589790686090229E+00
Pt_1    1.5884513434893601E+00    2.7094724395162979E+00    8.1037219265941669E+00
Pt_1    6.2805566328414137E+00    2.7086701470585366E+00    8.1026623993702795E+00
Pt_1    6.2797348086926172E+00    1.4592636930567786E-04    8.0999940400397605E+00
Pt_1    1.5924272215940058E+00    2.5141254656985064E-04    8.1012352107866992E+00
Pt_1   -7.2669349965568686E-01    6.7699454933727132E+00    8.1623913616031594E+00
Pt_1    3.9619265397024326E+00    6.7698091605817581E+00    8.1623791822374976E+00
Pt_1   -7.2802893860552054E-01    4.0626614944467985E+00    8.1613930492219691E+00
Pt_1    3.9608696751520398E+00    4.0603554356886153E+00    8.1616800956134945E+00
Ni_1    3.6531375984702297E-02    5.4302235814149453E+00    1.0372691188412077E+01
Ni_1    4.7232877093152155E+00    2.6936364867173834E+00    1.0372403806186917E+01
Ni_1    3.3895313940826677E-02    1.1607597978578214E-02    1.0372819428647187E+01
Ni_1    4.6932438779039005E+00    5.4167164723975834E+00    1.0381782425071037E+01
Pt_2   -2.3106778355195199E+00    4.0473953777284972E+00    1.0373963187142309E+01
Pt_2   -2.3116947043475671E+00    6.7849031990476787E+00    1.0372500563366556E+01
Ni_1    6.7144215023428018E-03    2.7079757053731712E+00    1.0381368448477966E+01
Ni_1    4.7092351488170952E+00    2.9534719009349914E-02    1.0380038398753655E+01
Pt_2    2.3788897259747124E+00    4.0777981560072698E+00    1.0374874034198166E+01
Pt_2    2.3730629511302705E+00    1.3413781319756297E+00    1.0372081604748942E+01
Pt_2    2.3770978656106165E+00    6.7580550331929219E+00    1.0374622617972582E+01
Pt_2    7.0654541928877093E+00    1.3696774697160641E+00    1.0372837415735829E+01
Pt_3   -3.9032127374489733E+00    6.7697393025582908E+00    1.2531197885921038E+01
Pt_3   -1.5587031843816213E+00    5.4166329156432411E+00    1.2528784244817688E+01
Ni_2   -1.5483133853240876E+00    2.7058335037365868E+00    1.2506799537187655E+01
Pt_3    7.8790584585547752E-01    4.0659541308016349E+00    1.2530889900883510E+01
Pt_3    7.8722602591332880E-01    1.3561933141867801E+00    1.2531805047165019E+01
Pt_3    7.8618978257204397E-01    6.7743782452129899E+00    1.2531599611430117E+01
Ni_2    3.1203737756411840E+00   -7.9092504346885140E-03    1.2508485684816609E+01
Pt_3    3.1295406769337992E+00    2.7075793829207355E+00    1.2528635765162180E+01
Ni_2    3.1366384966391196E+00    5.4193448466720291E+00    1.2509200016012482E+01
Pt_3    5.4765562610096135E+00    4.0611230638418236E+00    1.2530717284242991E+01
Pt_3    5.4751014194720344E+00    1.3572331558865616E+00    1.2531334917880596E+01
Pt_3    7.8197401478390871E+00    3.4792762744641909E-03    1.2531039172864196E+01
Pt_4   -8.0174762441995617E-01    1.3720894804101689E+00    1.4685416312881744E+01
Pt_4    3.8809819575156621E+00    6.7550405715206185E+00    1.4683331848045841E+01
Pt_4    3.8823254491760486E+00    1.3392972423790650E+00    1.4681635935969238E+01
Pt_4    3.8769692887066500E+00    4.0804340386700098E+00    1.4681098803507579E+01
Ni_3    6.2458911797066730E+00    2.7017559224306922E+00    1.4681524932928982E+01
Pt_4   -8.0687524259258936E-01    6.7870648045164454E+00    1.4682358785777389E+01
Ni_3    1.5704778475247765E+00    1.1097381401329782E-02    1.4680814465406073E+01
Pt_4   -8.1215942393180340E-01    4.0439525467545092E+00    1.4681241866105223E+01
Ni_3    1.5534575498505532E+00    5.4217974363733976E+00    1.4681124744306194E+01
Ni_3    6.2294896393427539E+00    2.9685541557786122E-02    1.4690764703992532E+01
Ni_3   -3.1504846723230449E+00    5.4164018068682243E+00    1.4691156034728564E+01
Ni_3    1.5386866580444596E+00    2.7071380588656706E+00    1.4691754408767896E+01
Pt_5    2.3029174602580054E+00    4.0615635849768257E+00    1.6902260407796142E+01
Pt_5   -2.3865235897763379E+00    4.0613600128006668E+00    1.6902759564250037E+01
Pt_5    2.3016622835682239E+00    6.7705724355712631E+00    1.6899259651139783E+01
Pt_5   -2.3868410566622855E+00    6.7684714939810746E+00    1.6900819844405390E+01
Pt_5    4.6707248881627379E+00    5.2469145684343036E-04    1.6956550867190053E+01
Pt_5   -1.5302087697245328E-02   -3.4938412817658236E-04    1.6958857695492906E+01
Pt_5   -1.6742429759100150E-02    2.7092150907276347E+00    1.6957666188712814E+01
Pt_5    4.6735066765843181E+00    2.7088997173800848E+00    1.6955620921223492E+01
Pt_5    6.9908611177347391E+00    1.3542545380470874E+00    1.6903987406484113E+01
Pt_5    2.3009497413786892E+00    1.3552462462359938E+00    1.6900747947920692E+01
Pt_5    4.6729542800642045E+00    5.4146899523879943E+00    1.6954199275744589E+01
Pt_5   -1.4558830701800357E-02    5.4148525546434652E+00    1.6953488389223217E+01
     &END COORD
     &KIND Pt_1
       BASIS_SET TZVP-MOLOPT-SR-GTH
       MAGNETIZATION     0.0000000000000000E+00
       MAGNETIZATION_N  5
       MAGNETIZATION_L  2
       POTENTIAL GTH-PBE-q18
       &POTENTIAL
 3 6 9
  0.5000000000000000E+00 2  0.8814323240000000E+01 -0.2925094300000000E+00
 3
  0.2980022100000000E+00 3 -0.5968384980000000E+01  0.2421289966000000E+02 -0.1378967932000000E+02
 -0.5368763413000000E+02  0.3560479890000000E+02
 -0.2826043301000000E+02
  0.3601718200000000E+00 3 -0.6668659040000000E+01  0.7170659220000000E+01  0.7669037000000000E+00
 -0.7207660720000000E+01 -0.1814825380000000E+01
  0.1289806040000000E+01
  0.3405320600000000E+00 2 -0.8589904550000000E+01  0.9410121999999999E+01
 -0.1067007542000000E+02
         # Potential name:  GTH-PBE-Q18  for symbol:  PT
         # Potential read from the potential filename: GTH_POTENTIALS
       &END POTENTIAL
     &END KIND
     &KIND Ni_1
       BASIS_SET TZVP-MOLOPT-SR-GTH
       MAGNETIZATION     1.0000000000000000E+00
       MAGNETIZATION_N  3
       MAGNETIZATION_L  2
       POTENTIAL GTH-PBE-q18
       &POTENTIAL
 4 6 8
  0.3500000000000000E+00 2  0.2102165980000000E+01  0.6484838700000000E+00
 3
  0.2612953000000000E+00 2  0.6226584700000000E+00  0.9970226670000001E+01
 -0.1287150729000000E+02
  0.2242534600000000E+00 2 -0.1114270822000000E+02  0.1242956644000000E+02
 -0.1470686134000000E+02
  0.2153482500000000E+00 1 -0.1262814550000000E+02
         # Potential name:  GTH-PBE-Q18  for symbol:  NI
         # Potential read from the potential filename: GTH_POTENTIALS
       &END POTENTIAL
     &END KIND
     &KIND Pt_2
       BASIS_SET TZVP-MOLOPT-SR-GTH
       MAGNETIZATION     0.0000000000000000E+00
       MAGNETIZATION_N  5
       MAGNETIZATION_L  2
       POTENTIAL GTH-PBE-q18
       &POTENTIAL
 3 6 9
  0.5000000000000000E+00 2  0.8814323240000000E+01 -0.2925094300000000E+00
 3
  0.2980022100000000E+00 3 -0.5968384980000000E+01  0.2421289966000000E+02 -0.1378967932000000E+02
 -0.5368763413000000E+02  0.3560479890000000E+02
 -0.2826043301000000E+02
  0.3601718200000000E+00 3 -0.6668659040000000E+01  0.7170659220000000E+01  0.7669037000000000E+00
 -0.7207660720000000E+01 -0.1814825380000000E+01
  0.1289806040000000E+01
  0.3405320600000000E+00 2 -0.8589904550000000E+01  0.9410121999999999E+01
 -0.1067007542000000E+02
         # Potential name:  GTH-PBE-Q18  for symbol:  PT
         # Potential read from the potential filename: GTH_POTENTIALS
       &END POTENTIAL
     &END KIND
     &KIND Ni_2
       BASIS_SET TZVP-MOLOPT-SR-GTH
       MAGNETIZATION     1.0000000000000000E+00
       MAGNETIZATION_N  3
       MAGNETIZATION_L  2
       POTENTIAL GTH-PBE-q18
       &POTENTIAL
 4 6 8
  0.3500000000000000E+00 2  0.2102165980000000E+01  0.6484838700000000E+00
 3
  0.2612953000000000E+00 2  0.6226584700000000E+00  0.9970226670000001E+01
 -0.1287150729000000E+02
  0.2242534600000000E+00 2 -0.1114270822000000E+02  0.1242956644000000E+02
 -0.1470686134000000E+02
  0.2153482500000000E+00 1 -0.1262814550000000E+02
         # Potential name:  GTH-PBE-Q18  for symbol:  NI
         # Potential read from the potential filename: GTH_POTENTIALS
       &END POTENTIAL
     &END KIND
     &KIND Pt_3
       BASIS_SET TZVP-MOLOPT-SR-GTH
       MAGNETIZATION     0.0000000000000000E+00
       MAGNETIZATION_N  5
       MAGNETIZATION_L  2
       POTENTIAL GTH-PBE-q18
       &POTENTIAL
 3 6 9
  0.5000000000000000E+00 2  0.8814323240000000E+01 -0.2925094300000000E+00
 3
  0.2980022100000000E+00 3 -0.5968384980000000E+01  0.2421289966000000E+02 -0.1378967932000000E+02
 -0.5368763413000000E+02  0.3560479890000000E+02
 -0.2826043301000000E+02
  0.3601718200000000E+00 3 -0.6668659040000000E+01  0.7170659220000000E+01  0.7669037000000000E+00
 -0.7207660720000000E+01 -0.1814825380000000E+01
  0.1289806040000000E+01
  0.3405320600000000E+00 2 -0.8589904550000000E+01  0.9410121999999999E+01
 -0.1067007542000000E+02
         # Potential name:  GTH-PBE-Q18  for symbol:  PT
         # Potential read from the potential filename: GTH_POTENTIALS
       &END POTENTIAL
     &END KIND
     &KIND Ni_3
       BASIS_SET TZVP-MOLOPT-SR-GTH
       MAGNETIZATION     1.0000000000000000E+00
       MAGNETIZATION_N  3
       MAGNETIZATION_L  2
       POTENTIAL GTH-PBE-q18
       &POTENTIAL
 4 6 8
  0.3500000000000000E+00 2  0.2102165980000000E+01  0.6484838700000000E+00
 3
  0.2612953000000000E+00 2  0.6226584700000000E+00  0.9970226670000001E+01
 -0.1287150729000000E+02
  0.2242534600000000E+00 2 -0.1114270822000000E+02  0.1242956644000000E+02
 -0.1470686134000000E+02
  0.2153482500000000E+00 1 -0.1262814550000000E+02
         # Potential name:  GTH-PBE-Q18  for symbol:  NI
         # Potential read from the potential filename: GTH_POTENTIALS
       &END POTENTIAL
     &END KIND
     &KIND Pt_4
       BASIS_SET TZVP-MOLOPT-SR-GTH
       MAGNETIZATION     0.0000000000000000E+00
       MAGNETIZATION_N  5
       MAGNETIZATION_L  2
       POTENTIAL GTH-PBE-q18
       &POTENTIAL
 3 6 9
  0.5000000000000000E+00 2  0.8814323240000000E+01 -0.2925094300000000E+00
 3
  0.2980022100000000E+00 3 -0.5968384980000000E+01  0.2421289966000000E+02 -0.1378967932000000E+02
 -0.5368763413000000E+02  0.3560479890000000E+02
 -0.2826043301000000E+02
  0.3601718200000000E+00 3 -0.6668659040000000E+01  0.7170659220000000E+01  0.7669037000000000E+00
 -0.7207660720000000E+01 -0.1814825380000000E+01
  0.1289806040000000E+01
  0.3405320600000000E+00 2 -0.8589904550000000E+01  0.9410121999999999E+01
 -0.1067007542000000E+02
         # Potential name:  GTH-PBE-Q18  for symbol:  PT
         # Potential read from the potential filename: GTH_POTENTIALS
       &END POTENTIAL
     &END KIND
     &KIND Pt_5
       BASIS_SET TZVP-MOLOPT-SR-GTH
       MAGNETIZATION     0.0000000000000000E+00
       MAGNETIZATION_N  5
       MAGNETIZATION_L  2
       POTENTIAL GTH-PBE-q18
       &POTENTIAL
 3 6 9
  0.5000000000000000E+00 2  0.8814323240000000E+01 -0.2925094300000000E+00
 3
  0.2980022100000000E+00 3 -0.5968384980000000E+01  0.2421289966000000E+02 -0.1378967932000000E+02
 -0.5368763413000000E+02  0.3560479890000000E+02
 -0.2826043301000000E+02
  0.3601718200000000E+00 3 -0.6668659040000000E+01  0.7170659220000000E+01  0.7669037000000000E+00
 -0.7207660720000000E+01 -0.1814825380000000E+01
  0.1289806040000000E+01
  0.3405320600000000E+00 2 -0.8589904550000000E+01  0.9410121999999999E+01
 -0.1067007542000000E+02
         # Potential name:  GTH-PBE-Q18  for symbol:  PT
         # Potential read from the potential filename: GTH_POTENTIALS
       &END POTENTIAL
     &END KIND
     &TOPOLOGY
       COORD_FILE_NAME struct.xyz
       COORD_FILE_FORMAT  XYZ
       NUMBER_OF_ATOMS  60
       MULTIPLE_UNIT_CELL  1 1 1
     &END TOPOLOGY
   &END SUBSYS
 &END FORCE_EVAL
