@SET INPUT_COORD_FILE_NAME Ni-222.xyz

&GLOBAL
	PROJECT Bulk_Opt
	RUN_TYPE ENERGY
	PRINT_LEVEL MEDIUM
&END GLOBAL

&FORCE_EVAL
	METHOD Quickstep
	STRESS_TENSOR ANALYTICAL

	&DFT
		BASIS_SET_FILE_NAME BASIS_MOLOPT
		POTENTIAL_FILE_NAME GTH_POTENTIALS
		CHARGE 0
		MULTIPLICITY 33
		UKS .TRUE.
		
		&QS
			EPS_DEFAULT 1.0E-12
			EXTRAPOLATION ASPC
	    &END QS

		&MGRID
			NGRIDS 5
			CUTOFF 600.0
			REL_CUTOFF 60.0
		&END MGRID

		&SCF
			SCF_GUESS RESTART
			EPS_SCF 1.0E-7
			MAX_SCF 500
			ADDED_MOS 1000
			MAX_DIIS 10
			&DIAGONALIZATION
				ALGORITHM STANDARD
			&END DIAGONALIZATION
			&MIXING
				METHOD BROYDEN_MIXING
		ALPHA     5.0000000000000002E-01
         BETA     5.0000000000000000E-01
         NBUFFER  8	
			&END MIXING
			&SMEAR
				ELECTRONIC_TEMPERATURE [K] 500.0
				METHOD FERMI_DIRAC
			&END SMEAR
		&END SCF

		&XC
			&XC_FUNCTIONAL PBE
			&END XC_FUNCTIONAL
			&VDW_POTENTIAL
				POTENTIAL_TYPE PAIR_POTENTIAL
				&PAIR_POTENTIAL
					PARAMETER_FILE_NAME dftd3.dat
					TYPE DFTD3
					REFERENCE_FUNCTIONAL PBE
				&END
			&END VDW_POTENTIAL
		&END XC
	&PRINT
      &E_DENSITY_CUBE  ON
      &END E_DENSITY_CUBE
   &HIRSHFELD
   SHAPE_FUNCTION  DENSITY
   &END HIRSHFELD
    &END PRINT
	&END DFT

	&SUBSYS
		&CELL
			ABC 7.011596 7.011596 20.0
			ALPHA_BETA_GAMMA 90.000 90.000 90.000
		&END CELL
		
		&TOPOLOGY
			COORD_FILE_FORMAT XYZ
			COORD_FILE_NAME ${INPUT_COORD_FILE_NAME}
		&END TOPOLOGY

		&KIND Ni
			ELEMENT	Ni
			BASIS_SET DZVP-MOLOPT-SR-GTH
			POTENTIAL GTH-PBE
		&END KIND
	&END SUBSYS
&END FORCE_EVAL

&MOTION
	&CELL_OPT
		KEEP_ANGLES .FALSE.
		MAX_DR 3.0E-3
		MAX_FORCE 4.5E-4
		RMS_DR 1.5E-3
		RMS_FORCE 3.0E-4
		MAX_ITER 500
		OPTIMIZER BFGS
		TYPE DIRECT_CELL_OPT
	&END CELL_OPT

	&GEO_OPT
		TYPE MINIMIZATION
		MAX_DR 3.0E-3
		MAX_FORCE 4.5E-4
		RMS_DR 1.5E-3
		RMS_FORCE 3.0E-4
		MAX_ITER 500
		OPTIMIZER BFGS
	&END GEO_OPT

	&PRINT
		&TRAJECTORY
			FORMAT PDB
		&END TRAJECTORY
	&END PRINT
&END MOTION
