 # Version information for this restart file 
 # current date 2023-06-04 11:57:31.515
 # current working dir /work4/scd/scarf1157/work/masters/xiangzhuochun/pt3ni/yike-111/scarf/geo_opt/restart/Ni-1_Pt-0_yike_4e-2_4e-3_16_100_2000_8-8-1_pbe-d3_tzvp/MUST_CONVERGE_eps-5E-3_4E-3_3E-3_2E-3_1E-3_5E-4_4E-4_3E-4_2E-4_1E-4_5E-5_4E-5_3E-5_2E-5_1E-5_5E-6
 # Program compiled at                              Wed 31 May 18:19:05 BST 2023
 # Program compiled on                                     cn1108.scarf.rl.ac.uk
 # Program compiled for                                                    local
 # Source code revision number                                       git:3f1a084
 &GLOBAL
   PRINT_LEVEL  MEDIUM
   PROJECT_NAME Pt3Ni
   RUN_TYPE  GEO_OPT
 &END GLOBAL
 &MOTION
   &GEO_OPT
     TYPE  MINIMIZATION
     OPTIMIZER  BFGS
     MAX_ITER  200
     STEP_START_VAL  8
   &END GEO_OPT
   &PRINT
     &TRAJECTORY  ON
       UNIT angstrom
       FORMAT  XMOL
     &END TRAJECTORY
     &FORCES  SILENT
       UNIT hartree*bohr^-1
       FORMAT  XMOL
     &END FORCES
   &END PRINT
 &END MOTION
 &FORCE_EVAL
   METHOD  QS
   STRESS_TENSOR  ANALYTICAL
   &DFT
     BASIS_SET_FILE_NAME BASIS_MOLOPT_UCL
     POTENTIAL_FILE_NAME GTH_POTENTIALS
     UKS  T
     MULTIPLICITY  16
     NELEC_ALPHA     5.4750000000000000E+02
     NELEC_BETA     5.3250000000000000E+02
     CHARGE  0
     &SCF
       MAX_SCF  60
       EPS_SCF     5.0000000000000001E-03
       EPS_SCF_ARRAY     5.0000000000000001E-03    4.0000000000000001E-03    3.0000000000000001E-03    2.0000000000000000E-03 \
           1.0000000000000000E-03    5.0000000000000001E-04    4.0000000000000002E-04    2.9999999999999997E-04    2.0000000000000001E-04 \
           1.0000000000000000E-04    5.0000000000000002E-05    4.0000000000000003E-05    3.0000000000000001E-05    2.0000000000000002E-05 \
           1.0000000000000001E-05    5.0000000000000004E-06
       SCF_GUESS  RESTART
       ADDED_MOS  100
       MUST_CONVERGE  T
       &DIAGONALIZATION  T
         ALGORITHM  STANDARD
       &END DIAGONALIZATION
       &OUTER_SCF  T
         EPS_SCF     5.0000000000000004E-06
         MAX_SCF  16
       &END OUTER_SCF
       &SMEAR  T
         METHOD  FERMI_DIRAC
         ELECTRONIC_TEMPERATURE     2.0000000000000000E+03
       &END SMEAR
       &MIXING  T
         METHOD  BROYDEN_MIXING
         ALPHA     4.0000000000000001E-02
         BETA     4.0000000000000001E-03
         NBUFFER  16
       &END MIXING
     &END SCF
     &QS
       EPS_DEFAULT     1.0000000000000000E-14
       METHOD  GPW
     &END QS
     &MGRID
       NGRIDS  4
       CUTOFF     5.0000000000000000E+02
       REL_CUTOFF     6.0000000000000000E+01
     &END MGRID
     &XC
       DENSITY_CUTOFF     1.0000000000000000E-10
       GRADIENT_CUTOFF     1.0000000000000000E-10
       TAU_CUTOFF     1.0000000000000000E-10
       &XC_FUNCTIONAL  NO_SHORTCUT
         &PBE  T
           PARAMETRIZATION  ORIG
         &END PBE
       &END XC_FUNCTIONAL
       &VDW_POTENTIAL
         POTENTIAL_TYPE  PAIR_POTENTIAL
         &PAIR_POTENTIAL
           TYPE  DFTD3(BJ)
           PARAMETER_FILE_NAME dftd3.dat
           REFERENCE_FUNCTIONAL PBE
         &END PAIR_POTENTIAL
       &END VDW_POTENTIAL
     &END XC
     &KPOINTS
       SCHEME MONKHORST-PACK 8 8 1
     &END KPOINTS
     &PRINT
       &E_DENSITY_CUBE  ON
       &END E_DENSITY_CUBE
       &HIRSHFELD  SILENT
         SHAPE_FUNCTION  DENSITY
       &END HIRSHFELD
     &END PRINT
   &END DFT
   &SUBSYS
     &CELL
       A     9.3780000000000001E+00    0.0000000000000000E+00    0.0000000000000000E+00
       B    -4.6890000000000001E+00    8.1219999999999999E+00    0.0000000000000000E+00
       C     0.0000000000000000E+00    0.0000000000000000E+00    2.9061899185200001E+01
       MULTIPLE_UNIT_CELL  1 1 1
     &END CELL
     &COORD
Pt_1   -3.0987005411400586E+00    5.4180218452707471E+00    8.0995312356141955E+00
Pt_1    1.5929460672227926E+00    5.4181400547787053E+00    8.1000497725822047E+00
Pt_1   -7.2523011473023202E-01    1.3573715169998020E+00    8.1544607464145340E+00
Pt_1    3.9636989011239891E+00    1.3559722703728632E+00    8.1546990753154809E+00
Pt_1    1.5901232947032677E+00    2.7100691316236558E+00    8.0989897366038495E+00
Pt_1    6.2815742555035694E+00    2.7105152657130822E+00    8.0995175704127060E+00
Pt_1    6.2803678571822106E+00    3.2876606995608207E-03    8.0981024769031436E+00
Pt_1    1.5921349216365885E+00    3.1145773488321067E-03    8.0986422108390936E+00
Pt_1   -7.2440732051971468E-01    6.7722287407301280E+00    8.1594557356689084E+00
Pt_1    3.9646930685465698E+00    6.7715231210043729E+00    8.1584739505549049E+00
Pt_1   -7.2422151868947893E-01    4.0651931751361801E+00    8.1616685741061374E+00
Pt_1    3.9645576110775171E+00    4.0632808750854403E+00    8.1601468148033511E+00
Ni_1    3.8355398769202985E-02    5.4309795668525425E+00    1.0370759275604311E+01
Ni_1    4.7261316702480780E+00    2.6943717528642845E+00    1.0367140419746130E+01
Ni_1    3.4892016248158908E-02    1.5033392235137539E-02    1.0368053413152211E+01
Ni_1    4.6962489813014088E+00    5.4177002109166263E+00    1.0380681972000913E+01
Pt_2   -2.3127362774607407E+00    4.0508690557818223E+00    1.0369110485274732E+01
Pt_2   -2.3109099337707102E+00    6.7870435395447730E+00    1.0368792498288528E+01
Ni_1    6.9809917400806250E-03    2.7079424489594000E+00    1.0380457937151592E+01
Ni_1    4.7200536703741074E+00    1.1508724513238392E-02    1.0379804430451269E+01
Pt_2    2.3753899887976608E+00    4.0780374124364718E+00    1.0367744923492941E+01
Pt_2    2.3809373705660843E+00    1.3416432139653724E+00    1.0368347442211048E+01
Pt_2    2.3809471364449850E+00    6.7579068610096620E+00    1.0370530090752021E+01
Pt_2    7.0720653550453960E+00    1.3723139869788585E+00    1.0369747323846854E+01
Pt_3   -3.9008521281452917E+00    6.7727752757426343E+00    1.2528211148246392E+01
Pt_3   -1.5566932151027171E+00    5.4181973792453961E+00    1.2524405626186420E+01
Ni_2   -1.5446866876013865E+00    2.7091203393283902E+00    1.2506529205935525E+01
Pt_3    7.9029248244176953E-01    4.0676674538951048E+00    1.2528237127315595E+01
Pt_3    7.8910149967842014E-01    1.3586507923005064E+00    1.2528071076085702E+01
Pt_3    7.8962954924489415E-01    6.7746112395806808E+00    1.2530871417012337E+01
Ni_2    3.1212428388346751E+00    1.9158025925322196E-03    1.2506519151256056E+01
Pt_3    3.1321194041544818E+00    2.7129472368188621E+00    1.2522206062694396E+01
Ni_2    3.1426562360292296E+00    5.4174225479516664E+00    1.2506276778343009E+01
Pt_3    5.4789944139526794E+00    4.0631706068988667E+00    1.2526766354968441E+01
Pt_3    5.4772532331917922E+00    1.3586928041910853E+00    1.2527494427518796E+01
Pt_3    7.8212799347783752E+00    3.5385195938347196E-03    1.2526507634562980E+01
Pt_4   -8.1051699888492323E-01    1.3754881019290159E+00    1.4679230244012913E+01
Pt_4    3.8790274322320402E+00    6.7576265888712443E+00    1.4678749511161689E+01
Pt_4    3.8752596313139867E+00    1.3426252534460479E+00    1.4676875553707527E+01
Pt_4    3.8781388745921030E+00    4.0823945890649513E+00    1.4677517435112360E+01
Ni_3    6.2345158543801507E+00    2.7081121295277040E+00    1.4681219888618017E+01
Pt_4   -8.0897444089445514E-01    6.7895146900303951E+00    1.4678320091804313E+01
Ni_3    1.5680637719035952E+00    1.5830238180524463E-02    1.4680537199438314E+01
Pt_4   -8.0984851372169153E-01    4.0482052559866935E+00    1.4678466738126502E+01
Ni_3    1.5529646737858940E+00    5.4220935553706662E+00    1.4680919097367525E+01
Ni_3    6.2225135496168322E+00    3.0100787501272770E-02    1.4688441231665387E+01
Ni_3   -3.1520186024598238E+00    5.4167630495292904E+00    1.4687639917209067E+01
Ni_3    1.5393744329747328E+00    2.7095618704166498E+00    1.4688198417297484E+01
Pt_5    2.2972426727352309E+00    4.0649430077958737E+00    1.6895372096797789E+01
Pt_5   -2.3915816220380584E+00    4.0643410773762021E+00    1.6895361846805063E+01
Pt_5    2.2971281705792563E+00    6.7730083974635509E+00    1.6893314458386776E+01
Pt_5   -2.3911049015312567E+00    6.7713599431830680E+00    1.6895292842652786E+01
Pt_5    4.6686016185841952E+00    3.8197059413314204E-03    1.6950334433828619E+01
Pt_5   -1.7404243007165830E-02    3.4702163724019738E-03    1.6949520063929310E+01
Pt_5   -2.0183627968275344E-02    2.7107420437866816E+00    1.6951349619649442E+01
Pt_5    4.6699125770712495E+00    2.7109403820881659E+00    1.6950843651921350E+01
Pt_5    6.9878414631175128E+00    1.3579836724647587E+00    1.6899927387395000E+01
Pt_5    2.2986945364879583E+00    1.3575913061049929E+00    1.6899924833355733E+01
Pt_5    4.6680882740209855E+00    5.4184233725921551E+00    1.6949140496637614E+01
Pt_5   -1.9049270883408399E-02    5.4182788663937114E+00    1.6951042155879179E+01
     &END COORD
     &KIND Pt_1
       BASIS_SET TZVP-MOLOPT-SR-GTH
       MAGNETIZATION     0.0000000000000000E+00
       MAGNETIZATION_N  5
       MAGNETIZATION_L  2
       POTENTIAL GTH-PBE-q18
       &POTENTIAL
 3 6 9
  0.5000000000000000E+00 2  0.8814323240000000E+01 -0.2925094300000000E+00
 3
  0.2980022100000000E+00 3 -0.5968384980000000E+01  0.2421289966000000E+02 -0.1378967932000000E+02
 -0.5368763413000000E+02  0.3560479890000000E+02
 -0.2826043301000000E+02
  0.3601718200000000E+00 3 -0.6668659040000000E+01  0.7170659220000000E+01  0.7669037000000000E+00
 -0.7207660720000000E+01 -0.1814825380000000E+01
  0.1289806040000000E+01
  0.3405320600000000E+00 2 -0.8589904550000000E+01  0.9410121999999999E+01
 -0.1067007542000000E+02
         # Potential name:  GTH-PBE-Q18  for symbol:  PT
         # Potential read from the potential filename: GTH_POTENTIALS
       &END POTENTIAL
     &END KIND
     &KIND Ni_1
       BASIS_SET TZVP-MOLOPT-SR-GTH
       MAGNETIZATION     1.0000000000000000E+00
       MAGNETIZATION_N  3
       MAGNETIZATION_L  2
       POTENTIAL GTH-PBE-q18
       &POTENTIAL
 4 6 8
  0.3500000000000000E+00 2  0.2102165980000000E+01  0.6484838700000000E+00
 3
  0.2612953000000000E+00 2  0.6226584700000000E+00  0.9970226670000001E+01
 -0.1287150729000000E+02
  0.2242534600000000E+00 2 -0.1114270822000000E+02  0.1242956644000000E+02
 -0.1470686134000000E+02
  0.2153482500000000E+00 1 -0.1262814550000000E+02
         # Potential name:  GTH-PBE-Q18  for symbol:  NI
         # Potential read from the potential filename: GTH_POTENTIALS
       &END POTENTIAL
     &END KIND
     &KIND Pt_2
       BASIS_SET TZVP-MOLOPT-SR-GTH
       MAGNETIZATION     0.0000000000000000E+00
       MAGNETIZATION_N  5
       MAGNETIZATION_L  2
       POTENTIAL GTH-PBE-q18
       &POTENTIAL
 3 6 9
  0.5000000000000000E+00 2  0.8814323240000000E+01 -0.2925094300000000E+00
 3
  0.2980022100000000E+00 3 -0.5968384980000000E+01  0.2421289966000000E+02 -0.1378967932000000E+02
 -0.5368763413000000E+02  0.3560479890000000E+02
 -0.2826043301000000E+02
  0.3601718200000000E+00 3 -0.6668659040000000E+01  0.7170659220000000E+01  0.7669037000000000E+00
 -0.7207660720000000E+01 -0.1814825380000000E+01
  0.1289806040000000E+01
  0.3405320600000000E+00 2 -0.8589904550000000E+01  0.9410121999999999E+01
 -0.1067007542000000E+02
         # Potential name:  GTH-PBE-Q18  for symbol:  PT
         # Potential read from the potential filename: GTH_POTENTIALS
       &END POTENTIAL
     &END KIND
     &KIND Ni_2
       BASIS_SET TZVP-MOLOPT-SR-GTH
       MAGNETIZATION     1.0000000000000000E+00
       MAGNETIZATION_N  3
       MAGNETIZATION_L  2
       POTENTIAL GTH-PBE-q18
       &POTENTIAL
 4 6 8
  0.3500000000000000E+00 2  0.2102165980000000E+01  0.6484838700000000E+00
 3
  0.2612953000000000E+00 2  0.6226584700000000E+00  0.9970226670000001E+01
 -0.1287150729000000E+02
  0.2242534600000000E+00 2 -0.1114270822000000E+02  0.1242956644000000E+02
 -0.1470686134000000E+02
  0.2153482500000000E+00 1 -0.1262814550000000E+02
         # Potential name:  GTH-PBE-Q18  for symbol:  NI
         # Potential read from the potential filename: GTH_POTENTIALS
       &END POTENTIAL
     &END KIND
     &KIND Pt_3
       BASIS_SET TZVP-MOLOPT-SR-GTH
       MAGNETIZATION     0.0000000000000000E+00
       MAGNETIZATION_N  5
       MAGNETIZATION_L  2
       POTENTIAL GTH-PBE-q18
       &POTENTIAL
 3 6 9
  0.5000000000000000E+00 2  0.8814323240000000E+01 -0.2925094300000000E+00
 3
  0.2980022100000000E+00 3 -0.5968384980000000E+01  0.2421289966000000E+02 -0.1378967932000000E+02
 -0.5368763413000000E+02  0.3560479890000000E+02
 -0.2826043301000000E+02
  0.3601718200000000E+00 3 -0.6668659040000000E+01  0.7170659220000000E+01  0.7669037000000000E+00
 -0.7207660720000000E+01 -0.1814825380000000E+01
  0.1289806040000000E+01
  0.3405320600000000E+00 2 -0.8589904550000000E+01  0.9410121999999999E+01
 -0.1067007542000000E+02
         # Potential name:  GTH-PBE-Q18  for symbol:  PT
         # Potential read from the potential filename: GTH_POTENTIALS
       &END POTENTIAL
     &END KIND
     &KIND Ni_3
       BASIS_SET TZVP-MOLOPT-SR-GTH
       MAGNETIZATION     1.0000000000000000E+00
       MAGNETIZATION_N  3
       MAGNETIZATION_L  2
       POTENTIAL GTH-PBE-q18
       &POTENTIAL
 4 6 8
  0.3500000000000000E+00 2  0.2102165980000000E+01  0.6484838700000000E+00
 3
  0.2612953000000000E+00 2  0.6226584700000000E+00  0.9970226670000001E+01
 -0.1287150729000000E+02
  0.2242534600000000E+00 2 -0.1114270822000000E+02  0.1242956644000000E+02
 -0.1470686134000000E+02
  0.2153482500000000E+00 1 -0.1262814550000000E+02
         # Potential name:  GTH-PBE-Q18  for symbol:  NI
         # Potential read from the potential filename: GTH_POTENTIALS
       &END POTENTIAL
     &END KIND
     &KIND Pt_4
       BASIS_SET TZVP-MOLOPT-SR-GTH
       MAGNETIZATION     0.0000000000000000E+00
       MAGNETIZATION_N  5
       MAGNETIZATION_L  2
       POTENTIAL GTH-PBE-q18
       &POTENTIAL
 3 6 9
  0.5000000000000000E+00 2  0.8814323240000000E+01 -0.2925094300000000E+00
 3
  0.2980022100000000E+00 3 -0.5968384980000000E+01  0.2421289966000000E+02 -0.1378967932000000E+02
 -0.5368763413000000E+02  0.3560479890000000E+02
 -0.2826043301000000E+02
  0.3601718200000000E+00 3 -0.6668659040000000E+01  0.7170659220000000E+01  0.7669037000000000E+00
 -0.7207660720000000E+01 -0.1814825380000000E+01
  0.1289806040000000E+01
  0.3405320600000000E+00 2 -0.8589904550000000E+01  0.9410121999999999E+01
 -0.1067007542000000E+02
         # Potential name:  GTH-PBE-Q18  for symbol:  PT
         # Potential read from the potential filename: GTH_POTENTIALS
       &END POTENTIAL
     &END KIND
     &KIND Pt_5
       BASIS_SET TZVP-MOLOPT-SR-GTH
       MAGNETIZATION     0.0000000000000000E+00
       MAGNETIZATION_N  5
       MAGNETIZATION_L  2
       POTENTIAL GTH-PBE-q18
       &POTENTIAL
 3 6 9
  0.5000000000000000E+00 2  0.8814323240000000E+01 -0.2925094300000000E+00
 3
  0.2980022100000000E+00 3 -0.5968384980000000E+01  0.2421289966000000E+02 -0.1378967932000000E+02
 -0.5368763413000000E+02  0.3560479890000000E+02
 -0.2826043301000000E+02
  0.3601718200000000E+00 3 -0.6668659040000000E+01  0.7170659220000000E+01  0.7669037000000000E+00
 -0.7207660720000000E+01 -0.1814825380000000E+01
  0.1289806040000000E+01
  0.3405320600000000E+00 2 -0.8589904550000000E+01  0.9410121999999999E+01
 -0.1067007542000000E+02
         # Potential name:  GTH-PBE-Q18  for symbol:  PT
         # Potential read from the potential filename: GTH_POTENTIALS
       &END POTENTIAL
     &END KIND
     &TOPOLOGY
       COORD_FILE_NAME struct.xyz
       COORD_FILE_FORMAT  XYZ
       NUMBER_OF_ATOMS  60
       MULTIPLE_UNIT_CELL  1 1 1
     &END TOPOLOGY
   &END SUBSYS
 &END FORCE_EVAL
