 # Version information for this restart file 
 # current date 2023-05-31 03:11:52.519
 # current working dir /work4/scd/scarf1157/work/masters/xiangzhuochun/pt3ni/yike-111/scarf/geo_opt/restart/Ni-1_Pt-0_yike_4e-2_4e-3_16_100_2000_8-8-1_pbe-d3_tzvp/NOTCONV_STOPALL_eps-5E-3_4E-3_3E-3_2E-3_1E-3_5E-4_4E-4_3E-4_2E-4_1E-4_5E-5_4E-5_3E-5_2E-5_1E-5_5E-6
 # Program compiled at                              Fri 26 May 21:18:31 BST 2023
 # Program compiled on                                     cn1108.scarf.rl.ac.uk
 # Program compiled for                                                    local
 # Source code revision number                                       git:dfe538b
 &GLOBAL
   PRINT_LEVEL  MEDIUM
   PROJECT_NAME Pt3Ni
   RUN_TYPE  GEO_OPT
 &END GLOBAL
 &MOTION
   &GEO_OPT
     TYPE  MINIMIZATION
     OPTIMIZER  BFGS
     MAX_ITER  200
     STEP_START_VAL  8
   &END GEO_OPT
   &PRINT
     &TRAJECTORY  ON
       UNIT angstrom
       FORMAT  XMOL
     &END TRAJECTORY
     &FORCES  SILENT
       UNIT hartree*bohr^-1
       FORMAT  XMOL
     &END FORCES
   &END PRINT
 &END MOTION
 &FORCE_EVAL
   METHOD  QS
   STRESS_TENSOR  ANALYTICAL
   &DFT
     BASIS_SET_FILE_NAME BASIS_MOLOPT_UCL
     POTENTIAL_FILE_NAME GTH_POTENTIALS
     UKS  T
     MULTIPLICITY  16
     NELEC_ALPHA     5.4750000000000000E+02
     NELEC_BETA     5.3250000000000000E+02
     CHARGE  0
     &SCF
       MAX_SCF  60
       EPS_SCF     5.0000000000000001E-03
       EPS_SCF_ARRAY     5.0000000000000001E-03    4.0000000000000001E-03    3.0000000000000001E-03    2.0000000000000000E-03 \
           1.0000000000000000E-03    5.0000000000000001E-04    4.0000000000000002E-04    2.9999999999999997E-04    2.0000000000000001E-04 \
           1.0000000000000000E-04    5.0000000000000002E-05    4.0000000000000003E-05    3.0000000000000001E-05    2.0000000000000002E-05 \
           1.0000000000000001E-05    5.0000000000000004E-06
       SCF_GUESS  RESTART
       ADDED_MOS  100
       NOTCONV_STOPALL  T
       &DIAGONALIZATION  T
         ALGORITHM  STANDARD
       &END DIAGONALIZATION
       &OUTER_SCF  T
         EPS_SCF     5.0000000000000004E-06
         MAX_SCF  16
       &END OUTER_SCF
       &SMEAR  T
         METHOD  FERMI_DIRAC
         ELECTRONIC_TEMPERATURE     2.0000000000000000E+03
       &END SMEAR
       &MIXING  T
         METHOD  BROYDEN_MIXING
         ALPHA     4.0000000000000001E-02
         BETA     4.0000000000000001E-03
         NBUFFER  16
       &END MIXING
     &END SCF
     &QS
       EPS_DEFAULT     1.0000000000000000E-14
       METHOD  GPW
     &END QS
     &MGRID
       NGRIDS  4
       CUTOFF     5.0000000000000000E+02
       REL_CUTOFF     6.0000000000000000E+01
     &END MGRID
     &XC
       DENSITY_CUTOFF     1.0000000000000000E-10
       GRADIENT_CUTOFF     1.0000000000000000E-10
       TAU_CUTOFF     1.0000000000000000E-10
       &XC_FUNCTIONAL  NO_SHORTCUT
         &PBE  T
           PARAMETRIZATION  ORIG
         &END PBE
       &END XC_FUNCTIONAL
       &VDW_POTENTIAL
         POTENTIAL_TYPE  PAIR_POTENTIAL
         &PAIR_POTENTIAL
           TYPE  DFTD3(BJ)
           PARAMETER_FILE_NAME dftd3.dat
           REFERENCE_FUNCTIONAL PBE
         &END PAIR_POTENTIAL
       &END VDW_POTENTIAL
     &END XC
     &KPOINTS
       SCHEME MONKHORST-PACK 8 8 1
     &END KPOINTS
     &PRINT
       &E_DENSITY_CUBE  ON
       &END E_DENSITY_CUBE
       &HIRSHFELD  SILENT
         SHAPE_FUNCTION  DENSITY
       &END HIRSHFELD
     &END PRINT
   &END DFT
   &SUBSYS
     &CELL
       A     9.3780000000000001E+00    0.0000000000000000E+00    0.0000000000000000E+00
       B    -4.6890000000000001E+00    8.1219999999999999E+00    0.0000000000000000E+00
       C     0.0000000000000000E+00    0.0000000000000000E+00    2.9061899185200001E+01
       MULTIPLE_UNIT_CELL  1 1 1
     &END CELL
     &COORD
Pt_1   -3.0986969309108647E+00    5.4180200991012386E+00    8.0995321104008884E+00
Pt_1    1.5929491824063722E+00    5.4181385618237545E+00    8.1000533293971131E+00
Pt_1   -7.2522816653138966E-01    1.3573685103125224E+00    8.1544638741320306E+00
Pt_1    3.9637013190488442E+00    1.3559675307900552E+00    8.1546972023021613E+00
Pt_1    1.5901244866046897E+00    2.7100679641966567E+00    8.0989915631949891E+00
Pt_1    6.2815774545680316E+00    2.7105121569896053E+00    8.0995232914897048E+00
Pt_1    6.2803676979884591E+00    3.2865765734222010E-03    8.0981038843677364E+00
Pt_1    1.5921356226427161E+00    3.1130571872922731E-03    8.0986509231990027E+00
Pt_1   -7.2440262650893572E-01    6.7722298682001965E+00    8.1594598250557198E+00
Pt_1    3.9646959485504518E+00    6.7715234550562151E+00    8.1584780305497073E+00
Pt_1   -7.2421718331830387E-01    4.0651901288404080E+00    8.1616734381284761E+00
Pt_1    3.9645617865010294E+00    4.0632800260323192E+00    8.1601515881307805E+00
Ni_1    3.8353174450083856E-02    5.4309847756458813E+00    1.0370757177056971E+01
Ni_1    4.7261263413375829E+00    2.6943810645834132E+00    1.0367142686909471E+01
Ni_1    3.4898124145938160E-02    1.5029076238692252E-02    1.0368056158702824E+01
Ni_1    4.6962460157213153E+00    5.4177005728502898E+00    1.0380675201172108E+01
Pt_2   -2.3127371418851315E+00    4.0508674602687353E+00    1.0369105655508276E+01
Pt_2   -2.3109171332282532E+00    6.7870391913109609E+00    1.0368779957414846E+01
Ni_1    6.9796294271661438E-03    2.7079422625100338E+00    1.0380450505050565E+01
Ni_1    4.7200270599799588E+00    1.1523993499680791E-02    1.0379807554196958E+01
Pt_2    2.3753842263552212E+00    4.0780377118305733E+00    1.0367740294192817E+01
Pt_2    2.3809232791524066E+00    1.3416491089812803E+00    1.0368332668068829E+01
Pt_2    2.3809364469694208E+00    6.7579102213117608E+00    1.0370516944376016E+01
Pt_2    7.0720536210093732E+00    1.3723090991470392E+00    1.0369732831038515E+01
Pt_3   -3.9008567778849752E+00    6.7727712405071578E+00    1.2528207611479964E+01
Pt_3   -1.5566993936239470E+00    5.4181945695012654E+00    1.2524395097116020E+01
Ni_2   -1.5446808215366901E+00    2.7091138049887933E+00    1.2506511102146767E+01
Pt_3    7.9029246543268317E-01    4.0676646123170217E+00    1.2528231795276136E+01
Pt_3    7.8910061094656203E-01    1.3586514423745808E+00    1.2528065795370647E+01
Pt_3    7.8962781655561154E-01    6.7746130445109038E+00    1.2530865385920391E+01
Ni_2    3.1212336318036065E+00    1.9085376513202810E-03    1.2506494870727458E+01
Pt_3    3.1321127599692731E+00    2.7129406211889990E+00    1.2522199118336102E+01
Ni_2    3.1426504009089666E+00    5.4174284064520970E+00    1.2506251015478130E+01
Pt_3    5.4789931538138354E+00    4.0631703482552828E+00    1.2526763518943470E+01
Pt_3    5.4772521533330618E+00    1.3586924025696265E+00    1.2527489538041779E+01
Pt_3    7.8212730715550371E+00    3.5388762321313483E-03    1.2526496980455738E+01
Pt_4   -8.1050771110194042E-01    1.3754811359437931E+00    1.4679229746843660E+01
Pt_4    3.8790253635250660E+00    6.7576252815791786E+00    1.4678743458153408E+01
Pt_4    3.8752638493892286E+00    1.3426243998852050E+00    1.4676870037231261E+01
Pt_4    3.8781337938722666E+00    4.0823934552660726E+00    1.4677508437854851E+01
Ni_3    6.2345326148760369E+00    2.7081029730377137E+00    1.4681207210190109E+01
Pt_4   -8.0897591261030743E-01    6.7895145050138712E+00    1.4678310950947147E+01
Ni_3    1.5680644983333258E+00    1.5825514065003262E-02    1.4680527039225739E+01
Pt_4   -8.0985647650026849E-01    4.0482032093629128E+00    1.4678459641449860E+01
Ni_3    1.5529664159835990E+00    5.4220926790811577E+00    1.4680907118058840E+01
Ni_3    6.2225126050897641E+00    3.0102513422828190E-02    1.4688439850831084E+01
Ni_3   -3.1520199830697040E+00    5.4167609987287904E+00    1.4687640230678605E+01
Ni_3    1.5393716541079796E+00    2.7095606851648371E+00    1.4688197995848757E+01
Pt_5    2.2972488052309874E+00    4.0649414763753171E+00    1.6895377865594586E+01
Pt_5   -2.3915763479836061E+00    4.0643365082485206E+00    1.6895366910630752E+01
Pt_5    2.2971340500584390E+00    6.7730049363506009E+00    1.6893319854877237E+01
Pt_5   -2.3910986872123532E+00    6.7713602460772417E+00    1.6895301853481836E+01
Pt_5    4.6686103684759512E+00    3.8175960963925644E-03    1.6950339366419097E+01
Pt_5   -1.7395691228582016E-02    3.4680070135635795E-03    1.6949527739180194E+01
Pt_5   -2.0175125650203581E-02    2.7107400375047672E+00    1.6951358474653354E+01
Pt_5    4.6699202801884381E+00    2.7109376965935779E+00    1.6950850640241487E+01
Pt_5    6.9878491946140793E+00    1.3579817439141868E+00    1.6899940354546843E+01
Pt_5    2.2987027964143132E+00    1.3575885460537167E+00    1.6899932723039669E+01
Pt_5    4.6680921239202231E+00    5.4184210237401800E+00    1.6949154498465738E+01
Pt_5   -1.9039928483227418E-02    5.4182773298101052E+00    1.6951047366291906E+01
     &END COORD
     &KIND Pt_1
       BASIS_SET TZVP-MOLOPT-SR-GTH
       MAGNETIZATION     0.0000000000000000E+00
       MAGNETIZATION_N  5
       MAGNETIZATION_L  2
       POTENTIAL GTH-PBE-q18
       &POTENTIAL
 3 6 9
  0.5000000000000000E+00 2  0.8814323240000000E+01 -0.2925094300000000E+00
 3
  0.2980022100000000E+00 3 -0.5968384980000000E+01  0.2421289966000000E+02 -0.1378967932000000E+02
 -0.5368763413000000E+02  0.3560479890000000E+02
 -0.2826043301000000E+02
  0.3601718200000000E+00 3 -0.6668659040000000E+01  0.7170659220000000E+01  0.7669037000000000E+00
 -0.7207660720000000E+01 -0.1814825380000000E+01
  0.1289806040000000E+01
  0.3405320600000000E+00 2 -0.8589904550000000E+01  0.9410121999999999E+01
 -0.1067007542000000E+02
         # Potential name:  GTH-PBE-Q18  for symbol:  PT
         # Potential read from the potential filename: GTH_POTENTIALS
       &END POTENTIAL
     &END KIND
     &KIND Ni_1
       BASIS_SET TZVP-MOLOPT-SR-GTH
       MAGNETIZATION     1.0000000000000000E+00
       MAGNETIZATION_N  3
       MAGNETIZATION_L  2
       POTENTIAL GTH-PBE-q18
       &POTENTIAL
 4 6 8
  0.3500000000000000E+00 2  0.2102165980000000E+01  0.6484838700000000E+00
 3
  0.2612953000000000E+00 2  0.6226584700000000E+00  0.9970226670000001E+01
 -0.1287150729000000E+02
  0.2242534600000000E+00 2 -0.1114270822000000E+02  0.1242956644000000E+02
 -0.1470686134000000E+02
  0.2153482500000000E+00 1 -0.1262814550000000E+02
         # Potential name:  GTH-PBE-Q18  for symbol:  NI
         # Potential read from the potential filename: GTH_POTENTIALS
       &END POTENTIAL
     &END KIND
     &KIND Pt_2
       BASIS_SET TZVP-MOLOPT-SR-GTH
       MAGNETIZATION     0.0000000000000000E+00
       MAGNETIZATION_N  5
       MAGNETIZATION_L  2
       POTENTIAL GTH-PBE-q18
       &POTENTIAL
 3 6 9
  0.5000000000000000E+00 2  0.8814323240000000E+01 -0.2925094300000000E+00
 3
  0.2980022100000000E+00 3 -0.5968384980000000E+01  0.2421289966000000E+02 -0.1378967932000000E+02
 -0.5368763413000000E+02  0.3560479890000000E+02
 -0.2826043301000000E+02
  0.3601718200000000E+00 3 -0.6668659040000000E+01  0.7170659220000000E+01  0.7669037000000000E+00
 -0.7207660720000000E+01 -0.1814825380000000E+01
  0.1289806040000000E+01
  0.3405320600000000E+00 2 -0.8589904550000000E+01  0.9410121999999999E+01
 -0.1067007542000000E+02
         # Potential name:  GTH-PBE-Q18  for symbol:  PT
         # Potential read from the potential filename: GTH_POTENTIALS
       &END POTENTIAL
     &END KIND
     &KIND Ni_2
       BASIS_SET TZVP-MOLOPT-SR-GTH
       MAGNETIZATION     1.0000000000000000E+00
       MAGNETIZATION_N  3
       MAGNETIZATION_L  2
       POTENTIAL GTH-PBE-q18
       &POTENTIAL
 4 6 8
  0.3500000000000000E+00 2  0.2102165980000000E+01  0.6484838700000000E+00
 3
  0.2612953000000000E+00 2  0.6226584700000000E+00  0.9970226670000001E+01
 -0.1287150729000000E+02
  0.2242534600000000E+00 2 -0.1114270822000000E+02  0.1242956644000000E+02
 -0.1470686134000000E+02
  0.2153482500000000E+00 1 -0.1262814550000000E+02
         # Potential name:  GTH-PBE-Q18  for symbol:  NI
         # Potential read from the potential filename: GTH_POTENTIALS
       &END POTENTIAL
     &END KIND
     &KIND Pt_3
       BASIS_SET TZVP-MOLOPT-SR-GTH
       MAGNETIZATION     0.0000000000000000E+00
       MAGNETIZATION_N  5
       MAGNETIZATION_L  2
       POTENTIAL GTH-PBE-q18
       &POTENTIAL
 3 6 9
  0.5000000000000000E+00 2  0.8814323240000000E+01 -0.2925094300000000E+00
 3
  0.2980022100000000E+00 3 -0.5968384980000000E+01  0.2421289966000000E+02 -0.1378967932000000E+02
 -0.5368763413000000E+02  0.3560479890000000E+02
 -0.2826043301000000E+02
  0.3601718200000000E+00 3 -0.6668659040000000E+01  0.7170659220000000E+01  0.7669037000000000E+00
 -0.7207660720000000E+01 -0.1814825380000000E+01
  0.1289806040000000E+01
  0.3405320600000000E+00 2 -0.8589904550000000E+01  0.9410121999999999E+01
 -0.1067007542000000E+02
         # Potential name:  GTH-PBE-Q18  for symbol:  PT
         # Potential read from the potential filename: GTH_POTENTIALS
       &END POTENTIAL
     &END KIND
     &KIND Ni_3
       BASIS_SET TZVP-MOLOPT-SR-GTH
       MAGNETIZATION     1.0000000000000000E+00
       MAGNETIZATION_N  3
       MAGNETIZATION_L  2
       POTENTIAL GTH-PBE-q18
       &POTENTIAL
 4 6 8
  0.3500000000000000E+00 2  0.2102165980000000E+01  0.6484838700000000E+00
 3
  0.2612953000000000E+00 2  0.6226584700000000E+00  0.9970226670000001E+01
 -0.1287150729000000E+02
  0.2242534600000000E+00 2 -0.1114270822000000E+02  0.1242956644000000E+02
 -0.1470686134000000E+02
  0.2153482500000000E+00 1 -0.1262814550000000E+02
         # Potential name:  GTH-PBE-Q18  for symbol:  NI
         # Potential read from the potential filename: GTH_POTENTIALS
       &END POTENTIAL
     &END KIND
     &KIND Pt_4
       BASIS_SET TZVP-MOLOPT-SR-GTH
       MAGNETIZATION     0.0000000000000000E+00
       MAGNETIZATION_N  5
       MAGNETIZATION_L  2
       POTENTIAL GTH-PBE-q18
       &POTENTIAL
 3 6 9
  0.5000000000000000E+00 2  0.8814323240000000E+01 -0.2925094300000000E+00
 3
  0.2980022100000000E+00 3 -0.5968384980000000E+01  0.2421289966000000E+02 -0.1378967932000000E+02
 -0.5368763413000000E+02  0.3560479890000000E+02
 -0.2826043301000000E+02
  0.3601718200000000E+00 3 -0.6668659040000000E+01  0.7170659220000000E+01  0.7669037000000000E+00
 -0.7207660720000000E+01 -0.1814825380000000E+01
  0.1289806040000000E+01
  0.3405320600000000E+00 2 -0.8589904550000000E+01  0.9410121999999999E+01
 -0.1067007542000000E+02
         # Potential name:  GTH-PBE-Q18  for symbol:  PT
         # Potential read from the potential filename: GTH_POTENTIALS
       &END POTENTIAL
     &END KIND
     &KIND Pt_5
       BASIS_SET TZVP-MOLOPT-SR-GTH
       MAGNETIZATION     0.0000000000000000E+00
       MAGNETIZATION_N  5
       MAGNETIZATION_L  2
       POTENTIAL GTH-PBE-q18
       &POTENTIAL
 3 6 9
  0.5000000000000000E+00 2  0.8814323240000000E+01 -0.2925094300000000E+00
 3
  0.2980022100000000E+00 3 -0.5968384980000000E+01  0.2421289966000000E+02 -0.1378967932000000E+02
 -0.5368763413000000E+02  0.3560479890000000E+02
 -0.2826043301000000E+02
  0.3601718200000000E+00 3 -0.6668659040000000E+01  0.7170659220000000E+01  0.7669037000000000E+00
 -0.7207660720000000E+01 -0.1814825380000000E+01
  0.1289806040000000E+01
  0.3405320600000000E+00 2 -0.8589904550000000E+01  0.9410121999999999E+01
 -0.1067007542000000E+02
         # Potential name:  GTH-PBE-Q18  for symbol:  PT
         # Potential read from the potential filename: GTH_POTENTIALS
       &END POTENTIAL
     &END KIND
     &TOPOLOGY
       COORD_FILE_NAME struct.xyz
       COORD_FILE_FORMAT  XYZ
       NUMBER_OF_ATOMS  60
       MULTIPLE_UNIT_CELL  1 1 1
     &END TOPOLOGY
   &END SUBSYS
 &END FORCE_EVAL
