 # Version information for this restart file 
 # current date 2023-05-30 20:20:21.359
 # current working dir /work4/scd/scarf1157/work/masters/xiangzhuochun/pt3ni/yike-111/scarf/geo_opt/guess/Ni-0_Pt-0_yike_4e-2_4e-3_16_100_2000_8-8-1_pbe-d3_tzvp
 # Program compiled at                              Fri 26 May 21:18:31 BST 2023
 # Program compiled on                                     cn1108.scarf.rl.ac.uk
 # Program compiled for                                                    local
 # Source code revision number                                       git:dfe538b
 &GLOBAL
   PRINT_LEVEL  MEDIUM
   PROJECT_NAME Pt3Ni
   RUN_TYPE  GEO_OPT
 &END GLOBAL
 &MOTION
   &GEO_OPT
     TYPE  MINIMIZATION
     OPTIMIZER  BFGS
     MAX_ITER  200
     STEP_START_VAL  15
   &END GEO_OPT
   &PRINT
     &TRAJECTORY  ON
       UNIT angstrom
       FORMAT  XMOL
     &END TRAJECTORY
     &FORCES  SILENT
       UNIT hartree*bohr^-1
       FORMAT  XMOL
     &END FORCES
   &END PRINT
 &END MOTION
 &FORCE_EVAL
   METHOD  QS
   STRESS_TENSOR  ANALYTICAL
   &DFT
     BASIS_SET_FILE_NAME BASIS_MOLOPT_UCL
     POTENTIAL_FILE_NAME GTH_POTENTIALS
     UKS  T
     MULTIPLICITY  1
     NELEC_ALPHA     5.4000000000000000E+02
     NELEC_BETA     5.4000000000000000E+02
     CHARGE  0
     &SCF
       MAX_SCF  100
       EPS_SCF     5.0000000000000004E-06
       EPS_SCF_ARRAY     5.0000000000000004E-06
       SCF_GUESS  RESTART
       ADDED_MOS  100
       &DIAGONALIZATION  T
         ALGORITHM  STANDARD
       &END DIAGONALIZATION
       &OUTER_SCF  T
         EPS_SCF     5.0000000000000004E-06
         MAX_SCF  1
       &END OUTER_SCF
       &SMEAR  T
         METHOD  FERMI_DIRAC
         ELECTRONIC_TEMPERATURE     2.0000000000000000E+03
       &END SMEAR
       &MIXING  T
         METHOD  BROYDEN_MIXING
         ALPHA     4.0000000000000001E-02
         BETA     4.0000000000000001E-03
         NBUFFER  16
       &END MIXING
     &END SCF
     &QS
       EPS_DEFAULT     1.0000000000000000E-14
       METHOD  GPW
     &END QS
     &MGRID
       NGRIDS  4
       CUTOFF     5.0000000000000000E+02
       REL_CUTOFF     6.0000000000000000E+01
     &END MGRID
     &XC
       DENSITY_CUTOFF     1.0000000000000000E-10
       GRADIENT_CUTOFF     1.0000000000000000E-10
       TAU_CUTOFF     1.0000000000000000E-10
       &XC_FUNCTIONAL  NO_SHORTCUT
         &PBE  T
           PARAMETRIZATION  ORIG
         &END PBE
       &END XC_FUNCTIONAL
       &VDW_POTENTIAL
         POTENTIAL_TYPE  PAIR_POTENTIAL
         &PAIR_POTENTIAL
           TYPE  DFTD3(BJ)
           PARAMETER_FILE_NAME dftd3.dat
           REFERENCE_FUNCTIONAL PBE
         &END PAIR_POTENTIAL
       &END VDW_POTENTIAL
     &END XC
     &KPOINTS
       SCHEME MONKHORST-PACK 8 8 1
     &END KPOINTS
     &PRINT
       &E_DENSITY_CUBE  ON
       &END E_DENSITY_CUBE
       &HIRSHFELD  SILENT
         SHAPE_FUNCTION  DENSITY
       &END HIRSHFELD
     &END PRINT
   &END DFT
   &SUBSYS
     &CELL
       A     9.3780000000000001E+00    0.0000000000000000E+00    0.0000000000000000E+00
       B    -4.6890000000000001E+00    8.1219999999999999E+00    0.0000000000000000E+00
       C     0.0000000000000000E+00    0.0000000000000000E+00    2.9061899185200001E+01
       MULTIPLE_UNIT_CELL  1 1 1
     &END CELL
     &COORD
Pt_1   -3.0839066435685054E+00    5.4221670522300238E+00    8.0985191276447388E+00
Pt_1    1.6063094731836347E+00    5.4218315856602395E+00    8.0981414908423144E+00
Pt_1   -7.1204495717629790E-01    1.3605862220337688E+00    8.1636522575769650E+00
Pt_1    3.9768955730107538E+00    1.3603016273324637E+00    8.1635220764580829E+00
Pt_1    1.6038141861649464E+00    2.7148093035796257E+00    8.0974264007830321E+00
Pt_1    6.2951296707081434E+00    2.7144261356630048E+00    8.0979726048370821E+00
Pt_1    6.2938313876219256E+00    6.8702344163167131E-03    8.0966288147163734E+00
Pt_1    1.6055167801482289E+00    7.1125848783671125E-03    8.0980672787459316E+00
Pt_1   -7.1112791350545435E-01    6.7761268908556662E+00    8.1676437692417512E+00
Pt_1    3.9779827524578257E+00    6.7753816701814129E+00    8.1679068221201394E+00
Pt_1   -7.1113136309295355E-01    4.0686750689856570E+00    8.1681363847017803E+00
Pt_1    3.9787508993435226E+00    4.0675217257449416E+00    8.1706849195516629E+00
Ni_1    3.8157908553190602E-02    5.4313561279434879E+00    1.0373457347765219E+01
Ni_1    4.7309141499622269E+00    2.6962717174193447E+00    1.0373953787048675E+01
Ni_1    3.6615723014629391E-02    1.6915421512585932E-02    1.0374804909647754E+01
Ni_1    4.7201482881374277E+00    5.4297118599511096E+00    1.0383336073564319E+01
Pt_2   -2.3076293490661426E+00    4.0532809699133594E+00    1.0370868739279542E+01
Pt_2   -2.3054106765276354E+00    6.7952254775898187E+00    1.0372194120089096E+01
Ni_1    1.0021993228200790E-02    2.7081643366040833E+00    1.0383100174389941E+01
Ni_1    4.7204437712129828E+00    1.7491880264302134E-02    1.0382808996835772E+01
Pt_2    2.3823368768903870E+00    4.0852326229662488E+00    1.0369517856186071E+01
Pt_2    2.3810209010160381E+00    1.3486196255635274E+00    1.0369109497331626E+01
Pt_2    2.3836768338748104E+00    6.7605865596168488E+00    1.0371680129161019E+01
Pt_2    7.0728808521423661E+00    1.3754392461187523E+00    1.0371426880609478E+01
Pt_3   -3.9021142294062714E+00    6.7788067485041266E+00    1.2531289225049129E+01
Pt_3   -1.5605176940938290E+00    5.4227382907899777E+00    1.2522929461943077E+01
Ni_2   -1.5462115737079534E+00    2.7096763611351160E+00    1.2505834831868055E+01
Pt_3    7.8648354823612499E-01    4.0709974555779720E+00    1.2524751500125873E+01
Pt_3    7.8494446750294322E-01    1.3633161805077438E+00    1.2528060372145973E+01
Pt_3    7.8337971973042897E-01    6.7779818935644256E+00    1.2527551392591523E+01
Ni_2    3.1206367902721244E+00    1.7865082681630937E-02    1.2506392173532911E+01
Pt_3    3.1292242861665511E+00    2.7192759254463783E+00    1.2522109546939198E+01
Ni_2    3.1363370549451366E+00    5.4226192341551558E+00    1.2505774854103269E+01
Pt_3    5.4767771805010836E+00    4.0680787828087190E+00    1.2526359278215024E+01
Pt_3    5.4753512759150142E+00    1.3633067628165265E+00    1.2528743156950302E+01
Pt_3    7.8158231641540166E+00    5.7527702802955263E-03    1.2527041058021254E+01
Pt_4   -8.1990043178940453E-01    1.3774036514125605E+00    1.4676176641379776E+01
Pt_4    3.8692641980460434E+00    6.7605266438380331E+00    1.4676328158229044E+01
Pt_4    3.8686282387315072E+00    1.3485732800809698E+00    1.4675674882672576E+01
Pt_4    3.8714348710203179E+00    4.0885361742889375E+00    1.4674562437501498E+01
Ni_3    6.2287690035769234E+00    2.7104883225352596E+00    1.4677606208227353E+01
Pt_4   -8.2240052023013566E-01    6.7947140002954427E+00    1.4673247830019632E+01
Ni_3    1.5582505715527186E+00    2.3287221236757822E-02    1.4677493894655942E+01
Pt_4   -8.1831808875338163E-01    4.0498838920938818E+00    1.4672984649654307E+01
Ni_3    1.5383268734755597E+00    5.4184368323500873E+00    1.4677033160681011E+01
Ni_3    6.1985334337998008E+00    1.8113634197937684E-02    1.4685326551644060E+01
Ni_3   -3.1564692090993112E+00    5.4190091640678819E+00    1.4684665011340739E+01
Ni_3    1.5355899266110862E+00    2.7108039589615909E+00    1.4684647297020570E+01
Pt_5    2.2801002577905565E+00    4.0701273008432546E+00    1.6886084095020806E+01
Pt_5   -2.4088436610378450E+00    4.0694223879753118E+00    1.6885446909172177E+01
Pt_5    2.2792301128985466E+00    6.7778300156651436E+00    1.6883868531323593E+01
Pt_5   -2.4091450952885216E+00    6.7770811325106406E+00    1.6886635603943759E+01
Pt_5    4.6495551661406358E+00    8.5939607253387503E-03    1.6951264877873289E+01
Pt_5   -3.6236311647517436E-02    8.8017634740599239E-03    1.6949954648683210E+01
Pt_5   -3.8084800139620192E-02    2.7160229558813827E+00    1.6948730611240585E+01
Pt_5    4.6520211177005901E+00    2.7167804340092396E+00    1.6951957036706055E+01
Pt_5    6.9691911718282871E+00    1.3621921822981575E+00    1.6887726328655109E+01
Pt_5    2.2810496309641590E+00    1.3632405788364585E+00    1.6892413252456137E+01
Pt_5    4.6505973283412629E+00    5.4240691247671551E+00    1.6949699153014574E+01
Pt_5   -3.7501897152365807E-02    5.4233402807477216E+00    1.6948024585311863E+01
     &END COORD
     &KIND Pt_1
       BASIS_SET TZVP-MOLOPT-SR-GTH
       MAGNETIZATION     0.0000000000000000E+00
       MAGNETIZATION_N  5
       MAGNETIZATION_L  2
       POTENTIAL GTH-PBE-q18
       &POTENTIAL
 3 6 9
  0.5000000000000000E+00 2  0.8814323240000000E+01 -0.2925094300000000E+00
 3
  0.2980022100000000E+00 3 -0.5968384980000000E+01  0.2421289966000000E+02 -0.1378967932000000E+02
 -0.5368763413000000E+02  0.3560479890000000E+02
 -0.2826043301000000E+02
  0.3601718200000000E+00 3 -0.6668659040000000E+01  0.7170659220000000E+01  0.7669037000000000E+00
 -0.7207660720000000E+01 -0.1814825380000000E+01
  0.1289806040000000E+01
  0.3405320600000000E+00 2 -0.8589904550000000E+01  0.9410121999999999E+01
 -0.1067007542000000E+02
         # Potential name:  GTH-PBE-Q18  for symbol:  PT
         # Potential read from the potential filename: GTH_POTENTIALS
       &END POTENTIAL
     &END KIND
     &KIND Ni_1
       BASIS_SET TZVP-MOLOPT-SR-GTH
       MAGNETIZATION     0.0000000000000000E+00
       MAGNETIZATION_N  3
       MAGNETIZATION_L  2
       POTENTIAL GTH-PBE-q18
       &POTENTIAL
 4 6 8
  0.3500000000000000E+00 2  0.2102165980000000E+01  0.6484838700000000E+00
 3
  0.2612953000000000E+00 2  0.6226584700000000E+00  0.9970226670000001E+01
 -0.1287150729000000E+02
  0.2242534600000000E+00 2 -0.1114270822000000E+02  0.1242956644000000E+02
 -0.1470686134000000E+02
  0.2153482500000000E+00 1 -0.1262814550000000E+02
         # Potential name:  GTH-PBE-Q18  for symbol:  NI
         # Potential read from the potential filename: GTH_POTENTIALS
       &END POTENTIAL
     &END KIND
     &KIND Pt_2
       BASIS_SET TZVP-MOLOPT-SR-GTH
       MAGNETIZATION     0.0000000000000000E+00
       MAGNETIZATION_N  5
       MAGNETIZATION_L  2
       POTENTIAL GTH-PBE-q18
       &POTENTIAL
 3 6 9
  0.5000000000000000E+00 2  0.8814323240000000E+01 -0.2925094300000000E+00
 3
  0.2980022100000000E+00 3 -0.5968384980000000E+01  0.2421289966000000E+02 -0.1378967932000000E+02
 -0.5368763413000000E+02  0.3560479890000000E+02
 -0.2826043301000000E+02
  0.3601718200000000E+00 3 -0.6668659040000000E+01  0.7170659220000000E+01  0.7669037000000000E+00
 -0.7207660720000000E+01 -0.1814825380000000E+01
  0.1289806040000000E+01
  0.3405320600000000E+00 2 -0.8589904550000000E+01  0.9410121999999999E+01
 -0.1067007542000000E+02
         # Potential name:  GTH-PBE-Q18  for symbol:  PT
         # Potential read from the potential filename: GTH_POTENTIALS
       &END POTENTIAL
     &END KIND
     &KIND Ni_2
       BASIS_SET TZVP-MOLOPT-SR-GTH
       MAGNETIZATION     0.0000000000000000E+00
       MAGNETIZATION_N  3
       MAGNETIZATION_L  2
       POTENTIAL GTH-PBE-q18
       &POTENTIAL
 4 6 8
  0.3500000000000000E+00 2  0.2102165980000000E+01  0.6484838700000000E+00
 3
  0.2612953000000000E+00 2  0.6226584700000000E+00  0.9970226670000001E+01
 -0.1287150729000000E+02
  0.2242534600000000E+00 2 -0.1114270822000000E+02  0.1242956644000000E+02
 -0.1470686134000000E+02
  0.2153482500000000E+00 1 -0.1262814550000000E+02
         # Potential name:  GTH-PBE-Q18  for symbol:  NI
         # Potential read from the potential filename: GTH_POTENTIALS
       &END POTENTIAL
     &END KIND
     &KIND Pt_3
       BASIS_SET TZVP-MOLOPT-SR-GTH
       MAGNETIZATION     0.0000000000000000E+00
       MAGNETIZATION_N  5
       MAGNETIZATION_L  2
       POTENTIAL GTH-PBE-q18
       &POTENTIAL
 3 6 9
  0.5000000000000000E+00 2  0.8814323240000000E+01 -0.2925094300000000E+00
 3
  0.2980022100000000E+00 3 -0.5968384980000000E+01  0.2421289966000000E+02 -0.1378967932000000E+02
 -0.5368763413000000E+02  0.3560479890000000E+02
 -0.2826043301000000E+02
  0.3601718200000000E+00 3 -0.6668659040000000E+01  0.7170659220000000E+01  0.7669037000000000E+00
 -0.7207660720000000E+01 -0.1814825380000000E+01
  0.1289806040000000E+01
  0.3405320600000000E+00 2 -0.8589904550000000E+01  0.9410121999999999E+01
 -0.1067007542000000E+02
         # Potential name:  GTH-PBE-Q18  for symbol:  PT
         # Potential read from the potential filename: GTH_POTENTIALS
       &END POTENTIAL
     &END KIND
     &KIND Ni_3
       BASIS_SET TZVP-MOLOPT-SR-GTH
       MAGNETIZATION     0.0000000000000000E+00
       MAGNETIZATION_N  3
       MAGNETIZATION_L  2
       POTENTIAL GTH-PBE-q18
       &POTENTIAL
 4 6 8
  0.3500000000000000E+00 2  0.2102165980000000E+01  0.6484838700000000E+00
 3
  0.2612953000000000E+00 2  0.6226584700000000E+00  0.9970226670000001E+01
 -0.1287150729000000E+02
  0.2242534600000000E+00 2 -0.1114270822000000E+02  0.1242956644000000E+02
 -0.1470686134000000E+02
  0.2153482500000000E+00 1 -0.1262814550000000E+02
         # Potential name:  GTH-PBE-Q18  for symbol:  NI
         # Potential read from the potential filename: GTH_POTENTIALS
       &END POTENTIAL
     &END KIND
     &KIND Pt_4
       BASIS_SET TZVP-MOLOPT-SR-GTH
       MAGNETIZATION     0.0000000000000000E+00
       MAGNETIZATION_N  5
       MAGNETIZATION_L  2
       POTENTIAL GTH-PBE-q18
       &POTENTIAL
 3 6 9
  0.5000000000000000E+00 2  0.8814323240000000E+01 -0.2925094300000000E+00
 3
  0.2980022100000000E+00 3 -0.5968384980000000E+01  0.2421289966000000E+02 -0.1378967932000000E+02
 -0.5368763413000000E+02  0.3560479890000000E+02
 -0.2826043301000000E+02
  0.3601718200000000E+00 3 -0.6668659040000000E+01  0.7170659220000000E+01  0.7669037000000000E+00
 -0.7207660720000000E+01 -0.1814825380000000E+01
  0.1289806040000000E+01
  0.3405320600000000E+00 2 -0.8589904550000000E+01  0.9410121999999999E+01
 -0.1067007542000000E+02
         # Potential name:  GTH-PBE-Q18  for symbol:  PT
         # Potential read from the potential filename: GTH_POTENTIALS
       &END POTENTIAL
     &END KIND
     &KIND Pt_5
       BASIS_SET TZVP-MOLOPT-SR-GTH
       MAGNETIZATION     0.0000000000000000E+00
       MAGNETIZATION_N  5
       MAGNETIZATION_L  2
       POTENTIAL GTH-PBE-q18
       &POTENTIAL
 3 6 9
  0.5000000000000000E+00 2  0.8814323240000000E+01 -0.2925094300000000E+00
 3
  0.2980022100000000E+00 3 -0.5968384980000000E+01  0.2421289966000000E+02 -0.1378967932000000E+02
 -0.5368763413000000E+02  0.3560479890000000E+02
 -0.2826043301000000E+02
  0.3601718200000000E+00 3 -0.6668659040000000E+01  0.7170659220000000E+01  0.7669037000000000E+00
 -0.7207660720000000E+01 -0.1814825380000000E+01
  0.1289806040000000E+01
  0.3405320600000000E+00 2 -0.8589904550000000E+01  0.9410121999999999E+01
 -0.1067007542000000E+02
         # Potential name:  GTH-PBE-Q18  for symbol:  PT
         # Potential read from the potential filename: GTH_POTENTIALS
       &END POTENTIAL
     &END KIND
     &TOPOLOGY
       COORD_FILE_NAME struct.xyz
       COORD_FILE_FORMAT  XYZ
       NUMBER_OF_ATOMS  60
       MULTIPLE_UNIT_CELL  1 1 1
     &END TOPOLOGY
   &END SUBSYS
 &END FORCE_EVAL
