 # Version information for this restart file 
 # current date 2023-06-04 07:40:43.586
 # current working dir /work4/scd/scarf1157/work/masters/xiangzhuochun/pt3ni/yike-111/scarf/geo_opt/restart/Ni-1_Pt-0_yike_4e-2_4e-3_16_100_2000_8-8-1_pbe-d3_tzvp/MUST_CONVERGE_eps-5E-3_5E-4_4E-4_3E-4_2E-4_1E-4_5E-5_4E-5_3E-5_2E-5_1E-5_5E-6
 # Program compiled at                              Wed 31 May 18:19:05 BST 2023
 # Program compiled on                                     cn1108.scarf.rl.ac.uk
 # Program compiled for                                                    local
 # Source code revision number                                       git:3f1a084
 &GLOBAL
   PRINT_LEVEL  MEDIUM
   PROJECT_NAME Pt3Ni
   RUN_TYPE  GEO_OPT
 &END GLOBAL
 &MOTION
   &GEO_OPT
     TYPE  MINIMIZATION
     OPTIMIZER  BFGS
     MAX_ITER  200
     STEP_START_VAL  12
   &END GEO_OPT
   &PRINT
     &TRAJECTORY  ON
       UNIT angstrom
       FORMAT  XMOL
     &END TRAJECTORY
     &FORCES  SILENT
       UNIT hartree*bohr^-1
       FORMAT  XMOL
     &END FORCES
   &END PRINT
 &END MOTION
 &FORCE_EVAL
   METHOD  QS
   STRESS_TENSOR  ANALYTICAL
   &DFT
     BASIS_SET_FILE_NAME BASIS_MOLOPT_UCL
     POTENTIAL_FILE_NAME GTH_POTENTIALS
     UKS  T
     MULTIPLICITY  16
     NELEC_ALPHA     5.4750000000000000E+02
     NELEC_BETA     5.3250000000000000E+02
     CHARGE  0
     &SCF
       MAX_SCF  60
       EPS_SCF     5.0000000000000001E-03
       EPS_SCF_ARRAY     5.0000000000000001E-03    5.0000000000000001E-04    4.0000000000000002E-04    2.9999999999999997E-04 \
           2.0000000000000001E-04    1.0000000000000000E-04    5.0000000000000002E-05    4.0000000000000003E-05    3.0000000000000001E-05 \
           2.0000000000000002E-05    1.0000000000000001E-05    5.0000000000000004E-06
       SCF_GUESS  RESTART
       ADDED_MOS  100
       MUST_CONVERGE  T
       &DIAGONALIZATION  T
         ALGORITHM  STANDARD
       &END DIAGONALIZATION
       &OUTER_SCF  T
         EPS_SCF     5.0000000000000004E-06
         MAX_SCF  12
       &END OUTER_SCF
       &SMEAR  T
         METHOD  FERMI_DIRAC
         ELECTRONIC_TEMPERATURE     2.0000000000000000E+03
       &END SMEAR
       &MIXING  T
         METHOD  BROYDEN_MIXING
         ALPHA     4.0000000000000001E-02
         BETA     4.0000000000000001E-03
         NBUFFER  16
       &END MIXING
     &END SCF
     &QS
       EPS_DEFAULT     1.0000000000000000E-14
       METHOD  GPW
     &END QS
     &MGRID
       NGRIDS  4
       CUTOFF     5.0000000000000000E+02
       REL_CUTOFF     6.0000000000000000E+01
     &END MGRID
     &XC
       DENSITY_CUTOFF     1.0000000000000000E-10
       GRADIENT_CUTOFF     1.0000000000000000E-10
       TAU_CUTOFF     1.0000000000000000E-10
       &XC_FUNCTIONAL  NO_SHORTCUT
         &PBE  T
           PARAMETRIZATION  ORIG
         &END PBE
       &END XC_FUNCTIONAL
       &VDW_POTENTIAL
         POTENTIAL_TYPE  PAIR_POTENTIAL
         &PAIR_POTENTIAL
           TYPE  DFTD3(BJ)
           PARAMETER_FILE_NAME dftd3.dat
           REFERENCE_FUNCTIONAL PBE
         &END PAIR_POTENTIAL
       &END VDW_POTENTIAL
     &END XC
     &KPOINTS
       SCHEME MONKHORST-PACK 8 8 1
     &END KPOINTS
     &PRINT
       &E_DENSITY_CUBE  ON
       &END E_DENSITY_CUBE
       &HIRSHFELD  SILENT
         SHAPE_FUNCTION  DENSITY
       &END HIRSHFELD
     &END PRINT
   &END DFT
   &SUBSYS
     &CELL
       A     9.3780000000000001E+00    0.0000000000000000E+00    0.0000000000000000E+00
       B    -4.6890000000000001E+00    8.1219999999999999E+00    0.0000000000000000E+00
       C     0.0000000000000000E+00    0.0000000000000000E+00    2.9061899185200001E+01
       MULTIPLE_UNIT_CELL  1 1 1
     &END CELL
     &COORD
Pt_1   -3.0822109441140602E+00    5.4282616225986713E+00    8.0869338329396054E+00
Pt_1    1.6085316228450841E+00    5.4281522817959482E+00    8.0767748425551424E+00
Pt_1   -7.0973782618850723E-01    1.3693924932650847E+00    8.1304894853412364E+00
Pt_1    3.9785113979137514E+00    1.3651986388671180E+00    8.1303164052212367E+00
Pt_1    1.6048427518225910E+00    2.7251370778202628E+00    8.0750520149974516E+00
Pt_1    6.3018396921052782E+00    2.7238809476837686E+00    8.0688561633488778E+00
Pt_1    6.2967518444693074E+00    1.1988195654471777E-02    8.0768292618792152E+00
Pt_1    1.6115037420627185E+00    1.3020533446057234E-02    8.0714691829477374E+00
Pt_1   -7.0900914745010246E-01    6.7832512572985779E+00    8.1387534984780299E+00
Pt_1    3.9793461260565413E+00    6.7796281878440547E+00    8.1346598382837509E+00
Pt_1   -7.1093340062578747E-01    4.0742412469019706E+00    8.1337288175433589E+00
Pt_1    3.9782219774074292E+00    4.0772595275603507E+00    8.1310533595396262E+00
Ni_1    4.0910612420211906E-02    5.4327343966083870E+00    1.0330323305399670E+01
Ni_1    4.7323880074505498E+00    2.6960211826870695E+00    1.0292487562151930E+01
Ni_1    3.5665494546615766E-02    1.8547938239198092E-02    1.0304127421167113E+01
Ni_1    4.7014512217601174E+00    5.4231731462023527E+00    1.0374225879420457E+01
Pt_2   -2.2955530637072394E+00    4.0598222577422716E+00    1.0353905951621888E+01
Pt_2   -2.2985817407344178E+00    6.8091358007183578E+00    1.0352839997045541E+01
Ni_1    6.2903962164965284E-03    2.7118777784259671E+00    1.0372855034537032E+01
Ni_1    4.7165318494760662E+00    2.8622635364855924E-02    1.0370818370771472E+01
Pt_2    2.3902747554158026E+00    4.0942037774550544E+00    1.0351369009617102E+01
Pt_2    2.3715576001042931E+00    1.3599470522953663E+00    1.0343850405400801E+01
Pt_2    2.3872193145942742E+00    6.7653673202360434E+00    1.0351650481420759E+01
Pt_2    7.0669628795934418E+00    1.3828343147300579E+00    1.0344353648215749E+01
Pt_3   -3.8947379434718585E+00    6.7926957590344310E+00    1.2508561947837231E+01
Pt_3   -1.5540560701506492E+00    5.4406586552011156E+00    1.2499499289167508E+01
Ni_2   -1.5479838336486882E+00    2.7097564057010675E+00    1.2501193762557385E+01
Pt_3    7.8746883984893867E-01    4.0802955915120735E+00    1.2507100337869160E+01
Pt_3    7.8925443087460312E-01    1.3686754286545764E+00    1.2506107153969737E+01
Pt_3    7.9301498035705642E-01    6.7860795205776236E+00    1.2510705831462426E+01
Ni_2    3.1380879430759845E+00    6.2938712987137546E-02    1.2501764164823554E+01
Pt_3    3.1368371119301739E+00    2.7260052950336271E+00    1.2497880070819354E+01
Ni_2    3.1275846174516211E+00    5.4339088219096539E+00    1.2502269210822798E+01
Pt_3    5.4815918492312798E+00    4.0764091911292972E+00    1.2504932979808501E+01
Pt_3    5.4829895033813898E+00    1.3784701549702161E+00    1.2506187846657348E+01
Pt_3    7.8251778255619042E+00    1.8327301092595616E-02    1.2500126040663799E+01
Pt_4   -8.0922918261489796E-01    1.3871551704097962E+00    1.4660171113578125E+01
Pt_4    3.8710049748184372E+00    6.7723231567178477E+00    1.4657288408776424E+01
Pt_4    3.8843625680997205E+00    1.3680210399909951E+00    1.4666103616812654E+01
Pt_4    3.8661897303610551E+00    4.1018324932468158E+00    1.4656628415848374E+01
Ni_3    6.2321076320102069E+00    2.7192753803942438E+00    1.4677005780698209E+01
Pt_4   -8.2100443672660528E-01    6.8105719208776279E+00    1.4655849295034384E+01
Ni_3    1.5618689957383138E+00    2.6249048888914012E-02    1.4674977295590908E+01
Pt_4   -8.2851943045824084E-01    4.0642474365567542E+00    1.4653204535895071E+01
Ni_3    1.5305903197888417E+00    5.4166564857138484E+00    1.4676059075559650E+01
Ni_3    6.2113925118789330E+00    2.8184555112278652E-02    1.4677875986545505E+01
Ni_3   -3.1543089896519030E+00    5.4228036710278760E+00    1.4677452394974896E+01
Ni_3    1.5368071755265742E+00    2.7112582821380999E+00    1.4677831312879633E+01
Pt_5    2.2757047348960908E+00    4.0853784065456171E+00    1.6880776299694688E+01
Pt_5   -2.4136663604419559E+00    4.0855832768181726E+00    1.6879722698420345E+01
Pt_5    2.2744773746812763E+00    6.7930033384918396E+00    1.6871719060492897E+01
Pt_5   -2.4139858314420302E+00    6.7924778022468812E+00    1.6876108578119375E+01
Pt_5    4.6426740652578049E+00    2.3038140273044714E-02    1.6936337449351306E+01
Pt_5   -4.4706564848146592E-02    2.4159894905085213E-02    1.6931777983376008E+01
Pt_5   -4.5002961323148009E-02    2.7345072049577057E+00    1.6929167265790944E+01
Pt_5    4.6444149728492148E+00    2.7355962927481414E+00    1.6941727469591896E+01
Pt_5    6.9625947992829458E+00    1.3776736129277745E+00    1.6874105402103883E+01
Pt_5    2.2745817985842516E+00    1.3794016890494396E+00    1.6881323177621795E+01
Pt_5    4.6446517273204213E+00    5.4402444775189354E+00    1.6932710564065356E+01
Pt_5   -4.3922074696886845E-02    5.4387542716671904E+00    1.6928466816481432E+01
     &END COORD
     &KIND Pt_1
       BASIS_SET TZVP-MOLOPT-SR-GTH
       MAGNETIZATION     0.0000000000000000E+00
       MAGNETIZATION_N  5
       MAGNETIZATION_L  2
       POTENTIAL GTH-PBE-q18
       &POTENTIAL
 3 6 9
  0.5000000000000000E+00 2  0.8814323240000000E+01 -0.2925094300000000E+00
 3
  0.2980022100000000E+00 3 -0.5968384980000000E+01  0.2421289966000000E+02 -0.1378967932000000E+02
 -0.5368763413000000E+02  0.3560479890000000E+02
 -0.2826043301000000E+02
  0.3601718200000000E+00 3 -0.6668659040000000E+01  0.7170659220000000E+01  0.7669037000000000E+00
 -0.7207660720000000E+01 -0.1814825380000000E+01
  0.1289806040000000E+01
  0.3405320600000000E+00 2 -0.8589904550000000E+01  0.9410121999999999E+01
 -0.1067007542000000E+02
         # Potential name:  GTH-PBE-Q18  for symbol:  PT
         # Potential read from the potential filename: GTH_POTENTIALS
       &END POTENTIAL
     &END KIND
     &KIND Ni_1
       BASIS_SET TZVP-MOLOPT-SR-GTH
       MAGNETIZATION     1.0000000000000000E+00
       MAGNETIZATION_N  3
       MAGNETIZATION_L  2
       POTENTIAL GTH-PBE-q18
       &POTENTIAL
 4 6 8
  0.3500000000000000E+00 2  0.2102165980000000E+01  0.6484838700000000E+00
 3
  0.2612953000000000E+00 2  0.6226584700000000E+00  0.9970226670000001E+01
 -0.1287150729000000E+02
  0.2242534600000000E+00 2 -0.1114270822000000E+02  0.1242956644000000E+02
 -0.1470686134000000E+02
  0.2153482500000000E+00 1 -0.1262814550000000E+02
         # Potential name:  GTH-PBE-Q18  for symbol:  NI
         # Potential read from the potential filename: GTH_POTENTIALS
       &END POTENTIAL
     &END KIND
     &KIND Pt_2
       BASIS_SET TZVP-MOLOPT-SR-GTH
       MAGNETIZATION     0.0000000000000000E+00
       MAGNETIZATION_N  5
       MAGNETIZATION_L  2
       POTENTIAL GTH-PBE-q18
       &POTENTIAL
 3 6 9
  0.5000000000000000E+00 2  0.8814323240000000E+01 -0.2925094300000000E+00
 3
  0.2980022100000000E+00 3 -0.5968384980000000E+01  0.2421289966000000E+02 -0.1378967932000000E+02
 -0.5368763413000000E+02  0.3560479890000000E+02
 -0.2826043301000000E+02
  0.3601718200000000E+00 3 -0.6668659040000000E+01  0.7170659220000000E+01  0.7669037000000000E+00
 -0.7207660720000000E+01 -0.1814825380000000E+01
  0.1289806040000000E+01
  0.3405320600000000E+00 2 -0.8589904550000000E+01  0.9410121999999999E+01
 -0.1067007542000000E+02
         # Potential name:  GTH-PBE-Q18  for symbol:  PT
         # Potential read from the potential filename: GTH_POTENTIALS
       &END POTENTIAL
     &END KIND
     &KIND Ni_2
       BASIS_SET TZVP-MOLOPT-SR-GTH
       MAGNETIZATION     1.0000000000000000E+00
       MAGNETIZATION_N  3
       MAGNETIZATION_L  2
       POTENTIAL GTH-PBE-q18
       &POTENTIAL
 4 6 8
  0.3500000000000000E+00 2  0.2102165980000000E+01  0.6484838700000000E+00
 3
  0.2612953000000000E+00 2  0.6226584700000000E+00  0.9970226670000001E+01
 -0.1287150729000000E+02
  0.2242534600000000E+00 2 -0.1114270822000000E+02  0.1242956644000000E+02
 -0.1470686134000000E+02
  0.2153482500000000E+00 1 -0.1262814550000000E+02
         # Potential name:  GTH-PBE-Q18  for symbol:  NI
         # Potential read from the potential filename: GTH_POTENTIALS
       &END POTENTIAL
     &END KIND
     &KIND Pt_3
       BASIS_SET TZVP-MOLOPT-SR-GTH
       MAGNETIZATION     0.0000000000000000E+00
       MAGNETIZATION_N  5
       MAGNETIZATION_L  2
       POTENTIAL GTH-PBE-q18
       &POTENTIAL
 3 6 9
  0.5000000000000000E+00 2  0.8814323240000000E+01 -0.2925094300000000E+00
 3
  0.2980022100000000E+00 3 -0.5968384980000000E+01  0.2421289966000000E+02 -0.1378967932000000E+02
 -0.5368763413000000E+02  0.3560479890000000E+02
 -0.2826043301000000E+02
  0.3601718200000000E+00 3 -0.6668659040000000E+01  0.7170659220000000E+01  0.7669037000000000E+00
 -0.7207660720000000E+01 -0.1814825380000000E+01
  0.1289806040000000E+01
  0.3405320600000000E+00 2 -0.8589904550000000E+01  0.9410121999999999E+01
 -0.1067007542000000E+02
         # Potential name:  GTH-PBE-Q18  for symbol:  PT
         # Potential read from the potential filename: GTH_POTENTIALS
       &END POTENTIAL
     &END KIND
     &KIND Ni_3
       BASIS_SET TZVP-MOLOPT-SR-GTH
       MAGNETIZATION     1.0000000000000000E+00
       MAGNETIZATION_N  3
       MAGNETIZATION_L  2
       POTENTIAL GTH-PBE-q18
       &POTENTIAL
 4 6 8
  0.3500000000000000E+00 2  0.2102165980000000E+01  0.6484838700000000E+00
 3
  0.2612953000000000E+00 2  0.6226584700000000E+00  0.9970226670000001E+01
 -0.1287150729000000E+02
  0.2242534600000000E+00 2 -0.1114270822000000E+02  0.1242956644000000E+02
 -0.1470686134000000E+02
  0.2153482500000000E+00 1 -0.1262814550000000E+02
         # Potential name:  GTH-PBE-Q18  for symbol:  NI
         # Potential read from the potential filename: GTH_POTENTIALS
       &END POTENTIAL
     &END KIND
     &KIND Pt_4
       BASIS_SET TZVP-MOLOPT-SR-GTH
       MAGNETIZATION     0.0000000000000000E+00
       MAGNETIZATION_N  5
       MAGNETIZATION_L  2
       POTENTIAL GTH-PBE-q18
       &POTENTIAL
 3 6 9
  0.5000000000000000E+00 2  0.8814323240000000E+01 -0.2925094300000000E+00
 3
  0.2980022100000000E+00 3 -0.5968384980000000E+01  0.2421289966000000E+02 -0.1378967932000000E+02
 -0.5368763413000000E+02  0.3560479890000000E+02
 -0.2826043301000000E+02
  0.3601718200000000E+00 3 -0.6668659040000000E+01  0.7170659220000000E+01  0.7669037000000000E+00
 -0.7207660720000000E+01 -0.1814825380000000E+01
  0.1289806040000000E+01
  0.3405320600000000E+00 2 -0.8589904550000000E+01  0.9410121999999999E+01
 -0.1067007542000000E+02
         # Potential name:  GTH-PBE-Q18  for symbol:  PT
         # Potential read from the potential filename: GTH_POTENTIALS
       &END POTENTIAL
     &END KIND
     &KIND Pt_5
       BASIS_SET TZVP-MOLOPT-SR-GTH
       MAGNETIZATION     0.0000000000000000E+00
       MAGNETIZATION_N  5
       MAGNETIZATION_L  2
       POTENTIAL GTH-PBE-q18
       &POTENTIAL
 3 6 9
  0.5000000000000000E+00 2  0.8814323240000000E+01 -0.2925094300000000E+00
 3
  0.2980022100000000E+00 3 -0.5968384980000000E+01  0.2421289966000000E+02 -0.1378967932000000E+02
 -0.5368763413000000E+02  0.3560479890000000E+02
 -0.2826043301000000E+02
  0.3601718200000000E+00 3 -0.6668659040000000E+01  0.7170659220000000E+01  0.7669037000000000E+00
 -0.7207660720000000E+01 -0.1814825380000000E+01
  0.1289806040000000E+01
  0.3405320600000000E+00 2 -0.8589904550000000E+01  0.9410121999999999E+01
 -0.1067007542000000E+02
         # Potential name:  GTH-PBE-Q18  for symbol:  PT
         # Potential read from the potential filename: GTH_POTENTIALS
       &END POTENTIAL
     &END KIND
     &TOPOLOGY
       COORD_FILE_NAME struct.xyz
       COORD_FILE_FORMAT  XYZ
       NUMBER_OF_ATOMS  60
       MULTIPLE_UNIT_CELL  1 1 1
     &END TOPOLOGY
   &END SUBSYS
 &END FORCE_EVAL
