 # Version information for this restart file 
 # current date 2023-06-05 17:26:25.179
 # current working dir /work4/scd/scarf1157/work/masters/xiangzhuochun/pt3ni/yike-111/scarf/geo_opt_constrained/restart/Ni-1_Pt-0_yike_4e-2_4e-3_16_100_2000_8-8-1_pbe-d3_tzvp/MUST_CONVERGE_eps-5E-3_5E-4_4E-4_3E-4_2E-4_1E-4_5E-5_4E-5_3E-5_2E-5_1E-5_5E-6
 # Program compiled at                              Wed 31 May 18:19:05 BST 2023
 # Program compiled on                                     cn1108.scarf.rl.ac.uk
 # Program compiled for                                                    local
 # Source code revision number                                       git:3f1a084
 &GLOBAL
   PRINT_LEVEL  MEDIUM
   PROJECT_NAME Pt3Ni
   RUN_TYPE  GEO_OPT
 &END GLOBAL
 &MOTION
   &GEO_OPT
     TYPE  MINIMIZATION
     OPTIMIZER  BFGS
     MAX_ITER  200
     STEP_START_VAL  6
   &END GEO_OPT
   &CONSTRAINT
     &FIXED_ATOMS
       LIST  15..50
     &END FIXED_ATOMS
   &END CONSTRAINT
   &PRINT
     &TRAJECTORY  ON
       UNIT angstrom
       FORMAT  XMOL
     &END TRAJECTORY
     &FORCES  SILENT
       UNIT hartree*bohr^-1
       FORMAT  XMOL
     &END FORCES
   &END PRINT
 &END MOTION
 &FORCE_EVAL
   METHOD  QS
   STRESS_TENSOR  ANALYTICAL
   &DFT
     BASIS_SET_FILE_NAME BASIS_MOLOPT_UCL
     POTENTIAL_FILE_NAME GTH_POTENTIALS
     UKS  T
     MULTIPLICITY  16
     NELEC_ALPHA     5.4750000000000000E+02
     NELEC_BETA     5.3250000000000000E+02
     CHARGE  0
     &SCF
       MAX_SCF  60
       EPS_SCF     5.0000000000000001E-03
       EPS_SCF_ARRAY     5.0000000000000001E-03    5.0000000000000001E-04    4.0000000000000002E-04    2.9999999999999997E-04 \
           2.0000000000000001E-04    1.0000000000000000E-04    5.0000000000000002E-05    4.0000000000000003E-05    3.0000000000000001E-05 \
           2.0000000000000002E-05    1.0000000000000001E-05    5.0000000000000004E-06
       SCF_GUESS  RESTART
       ADDED_MOS  100
       MUST_CONVERGE  T
       &DIAGONALIZATION  T
         ALGORITHM  STANDARD
       &END DIAGONALIZATION
       &OUTER_SCF  T
         EPS_SCF     5.0000000000000004E-06
         MAX_SCF  12
       &END OUTER_SCF
       &SMEAR  T
         METHOD  FERMI_DIRAC
         ELECTRONIC_TEMPERATURE     2.0000000000000000E+03
       &END SMEAR
       &MIXING  T
         METHOD  BROYDEN_MIXING
         ALPHA     4.0000000000000001E-02
         BETA     4.0000000000000001E-03
         NBUFFER  16
       &END MIXING
     &END SCF
     &QS
       EPS_DEFAULT     1.0000000000000000E-14
       METHOD  GPW
     &END QS
     &MGRID
       NGRIDS  4
       CUTOFF     5.0000000000000000E+02
       REL_CUTOFF     6.0000000000000000E+01
     &END MGRID
     &XC
       DENSITY_CUTOFF     1.0000000000000000E-10
       GRADIENT_CUTOFF     1.0000000000000000E-10
       TAU_CUTOFF     1.0000000000000000E-10
       &XC_FUNCTIONAL  NO_SHORTCUT
         &PBE  T
           PARAMETRIZATION  ORIG
         &END PBE
       &END XC_FUNCTIONAL
       &VDW_POTENTIAL
         POTENTIAL_TYPE  PAIR_POTENTIAL
         &PAIR_POTENTIAL
           TYPE  DFTD3(BJ)
           PARAMETER_FILE_NAME dftd3.dat
           REFERENCE_FUNCTIONAL PBE
         &END PAIR_POTENTIAL
       &END VDW_POTENTIAL
     &END XC
     &KPOINTS
       SCHEME MONKHORST-PACK 8 8 1
     &END KPOINTS
     &PRINT
       &E_DENSITY_CUBE  ON
       &END E_DENSITY_CUBE
       &HIRSHFELD  SILENT
         SHAPE_FUNCTION  DENSITY
       &END HIRSHFELD
     &END PRINT
   &END DFT
   &SUBSYS
     &CELL
       A     9.3780000000000001E+00    0.0000000000000000E+00    0.0000000000000000E+00
       B    -4.6890000000000001E+00    8.1219999999999999E+00    0.0000000000000000E+00
       C     0.0000000000000000E+00    0.0000000000000000E+00    2.9061899185200001E+01
       MULTIPLE_UNIT_CELL  1 1 1
     &END CELL
     &COORD
Pt_1   -3.1026018620318041E+00    5.4151338425097926E+00    8.1134240185560191E+00
Pt_1    1.5891522203839512E+00    5.4150924534625835E+00    8.1245094358975170E+00
Pt_1   -7.3057241289055286E-01    1.3547383136446955E+00    8.1702893406483756E+00
Pt_1    3.9594948679834050E+00    1.3531950794838861E+00    8.1736245534643626E+00
Pt_1    1.5876905978897604E+00    2.7064906517251699E+00    8.1313947018250268E+00
Pt_1    6.2788624720778339E+00    2.7056833745759943E+00    8.1226717724422137E+00
Pt_1    6.2764498572766385E+00    6.5614532296523367E-04    8.1402229698602753E+00
Pt_1    1.5894763631967277E+00    1.2970217256054483E-03    8.1280801564670107E+00
Pt_1   -7.3021980743789050E-01    6.7688625792669415E+00    8.1755176624221377E+00
Pt_1    3.9580535144474327E+00    6.7683641869145790E+00    8.1782847957931217E+00
Pt_1   -7.2994066647384093E-01    4.0609941375749026E+00    8.1807122413470559E+00
Pt_1    3.9585709245316507E+00    4.0610159074190237E+00    8.1833900614619051E+00
Ni_1    2.6224885800839121E-02    5.4257821377705673E+00    1.0376365604619060E+01
Ni_1    4.7237097929485081E+00    2.6934852971772898E+00    1.0375651340582435E+01
Ni_1    1.6000000000000000E-02    1.5000000000000001E-02    1.0373000000000001E+01
Ni_1    4.7050000000000001E+00    5.4260000000000010E+00    1.0391999999999999E+01
Pt_2   -2.3310000000000004E+00    4.0519999999999996E+00    1.0391999999999999E+01
Pt_2   -2.3180000000000005E+00    6.7740000000000000E+00    1.0394000000000002E+01
Ni_1    8.0000000000000002E-03    2.6910000000000003E+00    1.0395000000000001E+01
Ni_1    4.6859999999999999E+00    4.0000000000000001E-03    1.0401000000000000E+01
Pt_2    2.3650000000000002E+00    4.0810000000000004E+00    1.0401999999999999E+01
Pt_2    2.3960000000000004E+00    1.3360000000000001E+00    1.0405000000000001E+01
Pt_2    2.3780000000000001E+00    6.7430000000000003E+00    1.0406000000000001E+01
Pt_2    7.0860000000000003E+00    1.3799999999999999E+00    1.0407999999999999E+01
Pt_3   -3.9070000000000000E+00    6.7679999999999998E+00    1.2531000000000002E+01
Pt_3   -1.5629999999999999E+00    5.4150000000000000E+00    1.2531000000000002E+01
Ni_2   -1.5629999999999999E+00    2.7069999999999999E+00    1.2531000000000002E+01
Pt_3    7.8100000000000003E-01    4.0609999999999999E+00    1.2531000000000002E+01
Pt_3    7.8200000000000003E-01    1.3540000000000003E+00    1.2531000000000002E+01
Pt_3    7.8200000000000003E-01    6.7679999999999998E+00    1.2531000000000002E+01
Ni_2    3.1259999999999999E+00    4.8526121443050171E-20    1.2531000000000002E+01
Pt_3    3.1259999999999999E+00    2.7069999999999999E+00    1.2531000000000002E+01
Ni_2    3.1259999999999999E+00    5.4150000000000000E+00    1.2531000000000002E+01
Pt_3    5.4700000000000006E+00    4.0609999999999999E+00    1.2531000000000002E+01
Pt_3    5.4710000000000001E+00    1.3540000000000003E+00    1.2531000000000002E+01
Pt_3    7.8150000000000013E+00    6.7453194128246628E-19    1.2531000000000002E+01
Pt_4   -8.3199999999999996E-01    1.3780000000000001E+00    1.4654999999999999E+01
Pt_4    3.8769999999999998E+00    6.7430000000000003E+00    1.4654999999999999E+01
Pt_4    3.8570000000000002E+00    1.3360000000000001E+00    1.4657000000000002E+01
Pt_4    3.8930000000000002E+00    4.0800000000000001E+00    1.4660000000000000E+01
Ni_3    6.2489999999999997E+00    2.6890000000000001E+00    1.4664000000000000E+01
Pt_4   -8.0600000000000016E-01    6.7750000000000012E+00    1.4664000000000000E+01
Ni_3    1.5680000000000001E+00    5.0000000000000001E-03    1.4664999999999999E+01
Pt_4   -7.9000000000000015E-01    4.0510000000000002E+00    1.4667000000000002E+01
Ni_3    1.5529999999999999E+00    5.4269999999999996E+00    1.4668000000000001E+01
Ni_3    6.2380000000000004E+00    1.4000000000000002E-02    1.4691000000000001E+01
Ni_3   -3.1570000000000000E+00    5.4279999999999999E+00    1.4692000000000000E+01
Ni_3    1.5410000000000001E+00    2.6790000000000003E+00    1.4693000000000001E+01
Pt_5    2.2959999999999998E+00    4.0599999999999996E+00    1.6837000000000000E+01
Pt_5   -2.3960000000000004E+00    4.0570000000000004E+00    1.6838999999999999E+01
Pt_5    2.2969948699317362E+00    6.7674334463111405E+00    1.6883555585306290E+01
Pt_5   -2.3920272545738737E+00    6.7672805679640531E+00    1.6886662270957313E+01
Pt_5    4.6651372860883740E+00   -1.0584657000499201E-03    1.6934720749325475E+01
Pt_5   -2.1765047486837441E-02   -1.1316631319579443E-03    1.6924776950636424E+01
Pt_5   -2.3430890832893941E-02    2.7036830026904695E+00    1.6936159087332172E+01
Pt_5    4.6671490258616570E+00    2.7034956433379449E+00    1.6928946624827827E+01
Pt_5    6.9854173266235540E+00    1.3519221323086741E+00    1.6892165828879286E+01
Pt_5    2.2963601912376439E+00    1.3498296035487301E+00    1.6893735909432444E+01
Pt_5    4.6652748805334880E+00    5.4145361354634813E+00    1.6937720561353352E+01
Pt_5   -2.0671733296501411E-02    5.4138794984741399E+00    1.6942981001339835E+01
     &END COORD
     &KIND Pt_1
       BASIS_SET TZVP-MOLOPT-SR-GTH
       MAGNETIZATION     0.0000000000000000E+00
       MAGNETIZATION_N  5
       MAGNETIZATION_L  2
       POTENTIAL GTH-PBE-q18
       &POTENTIAL
 3 6 9
  0.5000000000000000E+00 2  0.8814323240000000E+01 -0.2925094300000000E+00
 3
  0.2980022100000000E+00 3 -0.5968384980000000E+01  0.2421289966000000E+02 -0.1378967932000000E+02
 -0.5368763413000000E+02  0.3560479890000000E+02
 -0.2826043301000000E+02
  0.3601718200000000E+00 3 -0.6668659040000000E+01  0.7170659220000000E+01  0.7669037000000000E+00
 -0.7207660720000000E+01 -0.1814825380000000E+01
  0.1289806040000000E+01
  0.3405320600000000E+00 2 -0.8589904550000000E+01  0.9410121999999999E+01
 -0.1067007542000000E+02
         # Potential name:  GTH-PBE-Q18  for symbol:  PT
         # Potential read from the potential filename: GTH_POTENTIALS
       &END POTENTIAL
     &END KIND
     &KIND Ni_1
       BASIS_SET TZVP-MOLOPT-SR-GTH
       MAGNETIZATION     1.0000000000000000E+00
       MAGNETIZATION_N  3
       MAGNETIZATION_L  2
       POTENTIAL GTH-PBE-q18
       &POTENTIAL
 4 6 8
  0.3500000000000000E+00 2  0.2102165980000000E+01  0.6484838700000000E+00
 3
  0.2612953000000000E+00 2  0.6226584700000000E+00  0.9970226670000001E+01
 -0.1287150729000000E+02
  0.2242534600000000E+00 2 -0.1114270822000000E+02  0.1242956644000000E+02
 -0.1470686134000000E+02
  0.2153482500000000E+00 1 -0.1262814550000000E+02
         # Potential name:  GTH-PBE-Q18  for symbol:  NI
         # Potential read from the potential filename: GTH_POTENTIALS
       &END POTENTIAL
     &END KIND
     &KIND Pt_2
       BASIS_SET TZVP-MOLOPT-SR-GTH
       MAGNETIZATION     0.0000000000000000E+00
       MAGNETIZATION_N  5
       MAGNETIZATION_L  2
       POTENTIAL GTH-PBE-q18
       &POTENTIAL
 3 6 9
  0.5000000000000000E+00 2  0.8814323240000000E+01 -0.2925094300000000E+00
 3
  0.2980022100000000E+00 3 -0.5968384980000000E+01  0.2421289966000000E+02 -0.1378967932000000E+02
 -0.5368763413000000E+02  0.3560479890000000E+02
 -0.2826043301000000E+02
  0.3601718200000000E+00 3 -0.6668659040000000E+01  0.7170659220000000E+01  0.7669037000000000E+00
 -0.7207660720000000E+01 -0.1814825380000000E+01
  0.1289806040000000E+01
  0.3405320600000000E+00 2 -0.8589904550000000E+01  0.9410121999999999E+01
 -0.1067007542000000E+02
         # Potential name:  GTH-PBE-Q18  for symbol:  PT
         # Potential read from the potential filename: GTH_POTENTIALS
       &END POTENTIAL
     &END KIND
     &KIND Ni_2
       BASIS_SET TZVP-MOLOPT-SR-GTH
       MAGNETIZATION     1.0000000000000000E+00
       MAGNETIZATION_N  3
       MAGNETIZATION_L  2
       POTENTIAL GTH-PBE-q18
       &POTENTIAL
 4 6 8
  0.3500000000000000E+00 2  0.2102165980000000E+01  0.6484838700000000E+00
 3
  0.2612953000000000E+00 2  0.6226584700000000E+00  0.9970226670000001E+01
 -0.1287150729000000E+02
  0.2242534600000000E+00 2 -0.1114270822000000E+02  0.1242956644000000E+02
 -0.1470686134000000E+02
  0.2153482500000000E+00 1 -0.1262814550000000E+02
         # Potential name:  GTH-PBE-Q18  for symbol:  NI
         # Potential read from the potential filename: GTH_POTENTIALS
       &END POTENTIAL
     &END KIND
     &KIND Pt_3
       BASIS_SET TZVP-MOLOPT-SR-GTH
       MAGNETIZATION     0.0000000000000000E+00
       MAGNETIZATION_N  5
       MAGNETIZATION_L  2
       POTENTIAL GTH-PBE-q18
       &POTENTIAL
 3 6 9
  0.5000000000000000E+00 2  0.8814323240000000E+01 -0.2925094300000000E+00
 3
  0.2980022100000000E+00 3 -0.5968384980000000E+01  0.2421289966000000E+02 -0.1378967932000000E+02
 -0.5368763413000000E+02  0.3560479890000000E+02
 -0.2826043301000000E+02
  0.3601718200000000E+00 3 -0.6668659040000000E+01  0.7170659220000000E+01  0.7669037000000000E+00
 -0.7207660720000000E+01 -0.1814825380000000E+01
  0.1289806040000000E+01
  0.3405320600000000E+00 2 -0.8589904550000000E+01  0.9410121999999999E+01
 -0.1067007542000000E+02
         # Potential name:  GTH-PBE-Q18  for symbol:  PT
         # Potential read from the potential filename: GTH_POTENTIALS
       &END POTENTIAL
     &END KIND
     &KIND Ni_3
       BASIS_SET TZVP-MOLOPT-SR-GTH
       MAGNETIZATION     1.0000000000000000E+00
       MAGNETIZATION_N  3
       MAGNETIZATION_L  2
       POTENTIAL GTH-PBE-q18
       &POTENTIAL
 4 6 8
  0.3500000000000000E+00 2  0.2102165980000000E+01  0.6484838700000000E+00
 3
  0.2612953000000000E+00 2  0.6226584700000000E+00  0.9970226670000001E+01
 -0.1287150729000000E+02
  0.2242534600000000E+00 2 -0.1114270822000000E+02  0.1242956644000000E+02
 -0.1470686134000000E+02
  0.2153482500000000E+00 1 -0.1262814550000000E+02
         # Potential name:  GTH-PBE-Q18  for symbol:  NI
         # Potential read from the potential filename: GTH_POTENTIALS
       &END POTENTIAL
     &END KIND
     &KIND Pt_4
       BASIS_SET TZVP-MOLOPT-SR-GTH
       MAGNETIZATION     0.0000000000000000E+00
       MAGNETIZATION_N  5
       MAGNETIZATION_L  2
       POTENTIAL GTH-PBE-q18
       &POTENTIAL
 3 6 9
  0.5000000000000000E+00 2  0.8814323240000000E+01 -0.2925094300000000E+00
 3
  0.2980022100000000E+00 3 -0.5968384980000000E+01  0.2421289966000000E+02 -0.1378967932000000E+02
 -0.5368763413000000E+02  0.3560479890000000E+02
 -0.2826043301000000E+02
  0.3601718200000000E+00 3 -0.6668659040000000E+01  0.7170659220000000E+01  0.7669037000000000E+00
 -0.7207660720000000E+01 -0.1814825380000000E+01
  0.1289806040000000E+01
  0.3405320600000000E+00 2 -0.8589904550000000E+01  0.9410121999999999E+01
 -0.1067007542000000E+02
         # Potential name:  GTH-PBE-Q18  for symbol:  PT
         # Potential read from the potential filename: GTH_POTENTIALS
       &END POTENTIAL
     &END KIND
     &KIND Pt_5
       BASIS_SET TZVP-MOLOPT-SR-GTH
       MAGNETIZATION     0.0000000000000000E+00
       MAGNETIZATION_N  5
       MAGNETIZATION_L  2
       POTENTIAL GTH-PBE-q18
       &POTENTIAL
 3 6 9
  0.5000000000000000E+00 2  0.8814323240000000E+01 -0.2925094300000000E+00
 3
  0.2980022100000000E+00 3 -0.5968384980000000E+01  0.2421289966000000E+02 -0.1378967932000000E+02
 -0.5368763413000000E+02  0.3560479890000000E+02
 -0.2826043301000000E+02
  0.3601718200000000E+00 3 -0.6668659040000000E+01  0.7170659220000000E+01  0.7669037000000000E+00
 -0.7207660720000000E+01 -0.1814825380000000E+01
  0.1289806040000000E+01
  0.3405320600000000E+00 2 -0.8589904550000000E+01  0.9410121999999999E+01
 -0.1067007542000000E+02
         # Potential name:  GTH-PBE-Q18  for symbol:  PT
         # Potential read from the potential filename: GTH_POTENTIALS
       &END POTENTIAL
     &END KIND
     &TOPOLOGY
       COORD_FILE_NAME struct.xyz
       COORD_FILE_FORMAT  XYZ
       NUMBER_OF_ATOMS  60
       MULTIPLE_UNIT_CELL  1 1 1
     &END TOPOLOGY
   &END SUBSYS
 &END FORCE_EVAL
