 # Version information for this restart file 
 # current date 2023-06-04 21:45:03.434
 # current working dir /work4/scd/scarf1157/work/masters/xiangzhuochun/pt3ni/yike-111/scarf/geo_opt/guess/Ni-1_Pt-0_yike_4e-2_4e-3_16_100_2000_8-8-1_pbe-d3_tzvp/MUST_CONVERGE_eps-5E-3_5E-4_4E-4_3E-4_2E-4_1E-4_5E-5_4E-5_3E-5_2E-5_1E-5_5E-6
 # Program compiled at                              Wed 31 May 18:44:54 BST 2023
 # Program compiled on                                     cn1108.scarf.rl.ac.uk
 # Program compiled for                                                    local
 # Source code revision number                                       git:3f1a084
 &GLOBAL
   PRINT_LEVEL  MEDIUM
   PROJECT_NAME Pt3Ni
   RUN_TYPE  GEO_OPT
 &END GLOBAL
 &MOTION
   &GEO_OPT
     TYPE  MINIMIZATION
     OPTIMIZER  BFGS
     MAX_ITER  200
     STEP_START_VAL  12
   &END GEO_OPT
   &PRINT
     &TRAJECTORY  ON
       UNIT angstrom
       FORMAT  XMOL
     &END TRAJECTORY
     &FORCES  SILENT
       UNIT hartree*bohr^-1
       FORMAT  XMOL
     &END FORCES
   &END PRINT
 &END MOTION
 &FORCE_EVAL
   METHOD  QS
   STRESS_TENSOR  ANALYTICAL
   &DFT
     BASIS_SET_FILE_NAME BASIS_MOLOPT_UCL
     POTENTIAL_FILE_NAME GTH_POTENTIALS
     UKS  T
     MULTIPLICITY  16
     NELEC_ALPHA     5.4750000000000000E+02
     NELEC_BETA     5.3250000000000000E+02
     CHARGE  0
     &SCF
       MAX_SCF  60
       EPS_SCF     5.0000000000000001E-03
       EPS_SCF_ARRAY     5.0000000000000001E-03    5.0000000000000001E-04    4.0000000000000002E-04    2.9999999999999997E-04 \
           2.0000000000000001E-04    1.0000000000000000E-04    5.0000000000000002E-05    4.0000000000000003E-05    3.0000000000000001E-05 \
           2.0000000000000002E-05    1.0000000000000001E-05    5.0000000000000004E-06
       SCF_GUESS  RESTART
       ADDED_MOS  100
       MUST_CONVERGE  T
       &DIAGONALIZATION  T
         ALGORITHM  STANDARD
       &END DIAGONALIZATION
       &OUTER_SCF  T
         EPS_SCF     5.0000000000000004E-06
         MAX_SCF  12
       &END OUTER_SCF
       &SMEAR  T
         METHOD  FERMI_DIRAC
         ELECTRONIC_TEMPERATURE     2.0000000000000000E+03
       &END SMEAR
       &MIXING  T
         METHOD  BROYDEN_MIXING
         ALPHA     4.0000000000000001E-02
         BETA     4.0000000000000001E-03
         NBUFFER  16
       &END MIXING
     &END SCF
     &QS
       EPS_DEFAULT     1.0000000000000000E-14
       METHOD  GPW
     &END QS
     &MGRID
       NGRIDS  4
       CUTOFF     5.0000000000000000E+02
       REL_CUTOFF     6.0000000000000000E+01
     &END MGRID
     &XC
       DENSITY_CUTOFF     1.0000000000000000E-10
       GRADIENT_CUTOFF     1.0000000000000000E-10
       TAU_CUTOFF     1.0000000000000000E-10
       &XC_FUNCTIONAL  NO_SHORTCUT
         &PBE  T
           PARAMETRIZATION  ORIG
         &END PBE
       &END XC_FUNCTIONAL
       &VDW_POTENTIAL
         POTENTIAL_TYPE  PAIR_POTENTIAL
         &PAIR_POTENTIAL
           TYPE  DFTD3(BJ)
           PARAMETER_FILE_NAME dftd3.dat
           REFERENCE_FUNCTIONAL PBE
         &END PAIR_POTENTIAL
       &END VDW_POTENTIAL
     &END XC
     &KPOINTS
       SCHEME MONKHORST-PACK 8 8 1
     &END KPOINTS
     &PRINT
       &E_DENSITY_CUBE  ON
       &END E_DENSITY_CUBE
       &HIRSHFELD  SILENT
         SHAPE_FUNCTION  DENSITY
       &END HIRSHFELD
     &END PRINT
   &END DFT
   &SUBSYS
     &CELL
       A     9.3780000000000001E+00    0.0000000000000000E+00    0.0000000000000000E+00
       B    -4.6890000000000001E+00    8.1219999999999999E+00    0.0000000000000000E+00
       C     0.0000000000000000E+00    0.0000000000000000E+00    2.9061899185200001E+01
       MULTIPLE_UNIT_CELL  1 1 1
     &END CELL
     &COORD
Pt_1   -3.0712986854164654E+00    5.4348351549528413E+00    8.0776679407618062E+00
Pt_1    1.6185459231934198E+00    5.4346640638654078E+00    8.0609290691915412E+00
Pt_1   -7.0048953683107884E-01    1.3772115263924998E+00    8.1146239902719230E+00
Pt_1    3.9870802095803333E+00    1.3706109815147534E+00    8.1136073816225789E+00
Pt_1    1.6142744544503078E+00    2.7345097798801534E+00    8.0588886149977377E+00
Pt_1    6.3149739178268387E+00    2.7322137517527039E+00    8.0483290382454644E+00
Pt_1    6.3069098806036044E+00    1.7641011879079085E-02    8.0626544049257518E+00
Pt_1    1.6233856466299323E+00    1.9419366522463070E-02    8.0535728063157475E+00
Pt_1   -6.9914427464193651E-01    6.7899923047351507E+00    8.1258522170794318E+00
Pt_1    3.9886576091447847E+00    6.7843426612232083E+00    8.1193626979662703E+00
Pt_1   -7.0203118026634381E-01    4.0802689184756371E+00    8.1166539692194242E+00
Pt_1    3.9869841858671240E+00    4.0867456140462011E+00    8.1126108120503737E+00
Ni_1    4.2418120889784104E-02    5.4342586703991511E+00    1.0306863370107221E+01
Ni_1    4.7361367922296536E+00    2.6969759360193035E+00    1.0239538918507325E+01
Ni_1    3.6219907431253577E-02    2.0978564077831448E-02    1.0262059961144303E+01
Ni_1    4.7049189951830126E+00    5.4266551167482273E+00    1.0370963420333522E+01
Pt_2   -2.2851610410868215E+00    4.0659882569853050E+00    1.0344411271426779E+01
Pt_2   -2.2907541366738382E+00    6.8233743081402922E+00    1.0343026426190669E+01
Ni_1    5.7923909974625445E-03    2.7146029007550281E+00    1.0368523489042582E+01
Ni_1    4.7154078292326522E+00    3.9775939028530605E-02    1.0365731059925791E+01
Pt_2    2.3990831759595581E+00    4.1045119160732888E+00    1.0341023736953860E+01
Pt_2    2.3661955619206561E+00    1.3715604112467688E+00    1.0329243169129496E+01
Pt_2    2.3910632844853903E+00    6.7702304424879722E+00    1.0340033362782387E+01
Pt_2    7.0643780931213991E+00    1.3897411640616320E+00    1.0329020720628305E+01
Pt_3   -3.8913507201354056E+00    6.8054615346235705E+00    1.2496470000472748E+01
Pt_3   -1.5525872812200361E+00    5.4546664076346101E+00    1.2484856662842764E+01
Ni_2   -1.5498570323896272E+00    2.7107975281168115E+00    1.2499055524332597E+01
Pt_3    7.8542567904414873E-01    4.0882333254889556E+00    1.2494376794290604E+01
Pt_3    7.8903042618244323E-01    1.3750568761016864E+00    1.2492413304454795E+01
Pt_3    7.9518829591347051E-01    6.7938023741713334E+00    1.2498684723349923E+01
Ni_2    3.1487315225488892E+00    1.0095804021180595E-01    1.2499833445379419E+01
Pt_3    3.1402924685021509E+00    2.7344920011895879E+00    1.2482794448164828E+01
Ni_2    3.1184012809283224E+00    5.4436933366885851E+00    1.2500756712650269E+01
Pt_3    5.4827441291113956E+00    4.0844803154197713E+00    1.2491040447607682E+01
Pt_3    5.4860282131953868E+00    1.3916259935833071E+00    1.2492740166149835E+01
Pt_3    7.8277896683654715E+00    2.7474911958662807E-02    1.2484234451082635E+01
Pt_4   -8.0887680131006745E-01    1.3944556367490719E+00    1.4648407938654785E+01
Pt_4    3.8657248717706758E+00    6.7813820565058762E+00    1.4644104426697931E+01
Pt_4    3.8895959222831418E+00    1.3843550922961181E+00    1.4659566407075229E+01
Pt_4    3.8592002996018104E+00    4.1141430145232949E+00    1.4644154902233241E+01
Ni_3    6.2312812828878670E+00    2.7258019708444312E+00    1.4674784507589692E+01
Pt_4   -8.2864411394236115E-01    6.8240003370309790E+00    1.4642176310138446E+01
Ni_3    1.5578544254438058E+00    3.3037006616780745E-02    1.4672221073547552E+01
Pt_4   -8.3995879030479914E-01    4.0745430457817884E+00    1.4637765263175908E+01
Ni_3    1.5158194903123430E+00    5.4126508747360518E+00    1.4673590929103264E+01
Ni_3    6.2041676229976552E+00    2.7078447070209063E-02    1.4671584816565041E+01
Ni_3   -3.1558683338270916E+00    5.4266739851466959E+00    1.4671061967894675E+01
Ni_3    1.5350572658457757E+00    2.7127817879994911E+00    1.4671233298912087E+01
Pt_5    2.2614441507843508E+00    4.0984759441879541E+00    1.6870536620586140E+01
Pt_5   -2.4281432721302707E+00    4.0992315053801702E+00    1.6868961626975789E+01
Pt_5    2.2598502945486052E+00    6.8054627268229329E+00    1.6857443232890830E+01
Pt_5   -2.4286590910360202E+00    6.8058310610297799E+00    1.6863420533012452E+01
Pt_5    4.6267407301180148E+00    3.5372972816859818E-02    1.6926012797162681E+01
Pt_5   -6.1431893855879903E-02    3.7323090942931840E-02    1.6919489494556796E+01
Pt_5   -6.0687988517243149E-02    2.7494905253673632E+00    1.6913902054847938E+01
Pt_5    4.6284322596872389E+00    2.7511968376292075E+00    1.6934876597086593E+01
Pt_5    6.9468846076970490E+00    1.3903081189282382E+00    1.6857880855358840E+01
Pt_5    2.2596098507285052E+00    1.3931800023511098E+00    1.6869664503441413E+01
Pt_5    4.6294403787917711E+00    5.4541968574575206E+00    1.6921356158103411E+01
Pt_5   -5.9953663196627330E-02    5.4519078852452143E+00    1.6913530441668787E+01
     &END COORD
     &KIND Pt_1
       BASIS_SET TZVP-MOLOPT-SR-GTH
       MAGNETIZATION     0.0000000000000000E+00
       MAGNETIZATION_N  5
       MAGNETIZATION_L  2
       POTENTIAL GTH-PBE-q18
       &POTENTIAL
 3 6 9
  0.5000000000000000E+00 2  0.8814323240000000E+01 -0.2925094300000000E+00
 3
  0.2980022100000000E+00 3 -0.5968384980000000E+01  0.2421289966000000E+02 -0.1378967932000000E+02
 -0.5368763413000000E+02  0.3560479890000000E+02
 -0.2826043301000000E+02
  0.3601718200000000E+00 3 -0.6668659040000000E+01  0.7170659220000000E+01  0.7669037000000000E+00
 -0.7207660720000000E+01 -0.1814825380000000E+01
  0.1289806040000000E+01
  0.3405320600000000E+00 2 -0.8589904550000000E+01  0.9410121999999999E+01
 -0.1067007542000000E+02
         # Potential name:  GTH-PBE-Q18  for symbol:  PT
         # Potential read from the potential filename: GTH_POTENTIALS
       &END POTENTIAL
     &END KIND
     &KIND Ni_1
       BASIS_SET TZVP-MOLOPT-SR-GTH
       MAGNETIZATION     1.0000000000000000E+00
       MAGNETIZATION_N  3
       MAGNETIZATION_L  2
       POTENTIAL GTH-PBE-q18
       &POTENTIAL
 4 6 8
  0.3500000000000000E+00 2  0.2102165980000000E+01  0.6484838700000000E+00
 3
  0.2612953000000000E+00 2  0.6226584700000000E+00  0.9970226670000001E+01
 -0.1287150729000000E+02
  0.2242534600000000E+00 2 -0.1114270822000000E+02  0.1242956644000000E+02
 -0.1470686134000000E+02
  0.2153482500000000E+00 1 -0.1262814550000000E+02
         # Potential name:  GTH-PBE-Q18  for symbol:  NI
         # Potential read from the potential filename: GTH_POTENTIALS
       &END POTENTIAL
     &END KIND
     &KIND Pt_2
       BASIS_SET TZVP-MOLOPT-SR-GTH
       MAGNETIZATION     0.0000000000000000E+00
       MAGNETIZATION_N  5
       MAGNETIZATION_L  2
       POTENTIAL GTH-PBE-q18
       &POTENTIAL
 3 6 9
  0.5000000000000000E+00 2  0.8814323240000000E+01 -0.2925094300000000E+00
 3
  0.2980022100000000E+00 3 -0.5968384980000000E+01  0.2421289966000000E+02 -0.1378967932000000E+02
 -0.5368763413000000E+02  0.3560479890000000E+02
 -0.2826043301000000E+02
  0.3601718200000000E+00 3 -0.6668659040000000E+01  0.7170659220000000E+01  0.7669037000000000E+00
 -0.7207660720000000E+01 -0.1814825380000000E+01
  0.1289806040000000E+01
  0.3405320600000000E+00 2 -0.8589904550000000E+01  0.9410121999999999E+01
 -0.1067007542000000E+02
         # Potential name:  GTH-PBE-Q18  for symbol:  PT
         # Potential read from the potential filename: GTH_POTENTIALS
       &END POTENTIAL
     &END KIND
     &KIND Ni_2
       BASIS_SET TZVP-MOLOPT-SR-GTH
       MAGNETIZATION     1.0000000000000000E+00
       MAGNETIZATION_N  3
       MAGNETIZATION_L  2
       POTENTIAL GTH-PBE-q18
       &POTENTIAL
 4 6 8
  0.3500000000000000E+00 2  0.2102165980000000E+01  0.6484838700000000E+00
 3
  0.2612953000000000E+00 2  0.6226584700000000E+00  0.9970226670000001E+01
 -0.1287150729000000E+02
  0.2242534600000000E+00 2 -0.1114270822000000E+02  0.1242956644000000E+02
 -0.1470686134000000E+02
  0.2153482500000000E+00 1 -0.1262814550000000E+02
         # Potential name:  GTH-PBE-Q18  for symbol:  NI
         # Potential read from the potential filename: GTH_POTENTIALS
       &END POTENTIAL
     &END KIND
     &KIND Pt_3
       BASIS_SET TZVP-MOLOPT-SR-GTH
       MAGNETIZATION     0.0000000000000000E+00
       MAGNETIZATION_N  5
       MAGNETIZATION_L  2
       POTENTIAL GTH-PBE-q18
       &POTENTIAL
 3 6 9
  0.5000000000000000E+00 2  0.8814323240000000E+01 -0.2925094300000000E+00
 3
  0.2980022100000000E+00 3 -0.5968384980000000E+01  0.2421289966000000E+02 -0.1378967932000000E+02
 -0.5368763413000000E+02  0.3560479890000000E+02
 -0.2826043301000000E+02
  0.3601718200000000E+00 3 -0.6668659040000000E+01  0.7170659220000000E+01  0.7669037000000000E+00
 -0.7207660720000000E+01 -0.1814825380000000E+01
  0.1289806040000000E+01
  0.3405320600000000E+00 2 -0.8589904550000000E+01  0.9410121999999999E+01
 -0.1067007542000000E+02
         # Potential name:  GTH-PBE-Q18  for symbol:  PT
         # Potential read from the potential filename: GTH_POTENTIALS
       &END POTENTIAL
     &END KIND
     &KIND Ni_3
       BASIS_SET TZVP-MOLOPT-SR-GTH
       MAGNETIZATION     1.0000000000000000E+00
       MAGNETIZATION_N  3
       MAGNETIZATION_L  2
       POTENTIAL GTH-PBE-q18
       &POTENTIAL
 4 6 8
  0.3500000000000000E+00 2  0.2102165980000000E+01  0.6484838700000000E+00
 3
  0.2612953000000000E+00 2  0.6226584700000000E+00  0.9970226670000001E+01
 -0.1287150729000000E+02
  0.2242534600000000E+00 2 -0.1114270822000000E+02  0.1242956644000000E+02
 -0.1470686134000000E+02
  0.2153482500000000E+00 1 -0.1262814550000000E+02
         # Potential name:  GTH-PBE-Q18  for symbol:  NI
         # Potential read from the potential filename: GTH_POTENTIALS
       &END POTENTIAL
     &END KIND
     &KIND Pt_4
       BASIS_SET TZVP-MOLOPT-SR-GTH
       MAGNETIZATION     0.0000000000000000E+00
       MAGNETIZATION_N  5
       MAGNETIZATION_L  2
       POTENTIAL GTH-PBE-q18
       &POTENTIAL
 3 6 9
  0.5000000000000000E+00 2  0.8814323240000000E+01 -0.2925094300000000E+00
 3
  0.2980022100000000E+00 3 -0.5968384980000000E+01  0.2421289966000000E+02 -0.1378967932000000E+02
 -0.5368763413000000E+02  0.3560479890000000E+02
 -0.2826043301000000E+02
  0.3601718200000000E+00 3 -0.6668659040000000E+01  0.7170659220000000E+01  0.7669037000000000E+00
 -0.7207660720000000E+01 -0.1814825380000000E+01
  0.1289806040000000E+01
  0.3405320600000000E+00 2 -0.8589904550000000E+01  0.9410121999999999E+01
 -0.1067007542000000E+02
         # Potential name:  GTH-PBE-Q18  for symbol:  PT
         # Potential read from the potential filename: GTH_POTENTIALS
       &END POTENTIAL
     &END KIND
     &KIND Pt_5
       BASIS_SET TZVP-MOLOPT-SR-GTH
       MAGNETIZATION     0.0000000000000000E+00
       MAGNETIZATION_N  5
       MAGNETIZATION_L  2
       POTENTIAL GTH-PBE-q18
       &POTENTIAL
 3 6 9
  0.5000000000000000E+00 2  0.8814323240000000E+01 -0.2925094300000000E+00
 3
  0.2980022100000000E+00 3 -0.5968384980000000E+01  0.2421289966000000E+02 -0.1378967932000000E+02
 -0.5368763413000000E+02  0.3560479890000000E+02
 -0.2826043301000000E+02
  0.3601718200000000E+00 3 -0.6668659040000000E+01  0.7170659220000000E+01  0.7669037000000000E+00
 -0.7207660720000000E+01 -0.1814825380000000E+01
  0.1289806040000000E+01
  0.3405320600000000E+00 2 -0.8589904550000000E+01  0.9410121999999999E+01
 -0.1067007542000000E+02
         # Potential name:  GTH-PBE-Q18  for symbol:  PT
         # Potential read from the potential filename: GTH_POTENTIALS
       &END POTENTIAL
     &END KIND
     &TOPOLOGY
       COORD_FILE_NAME struct.xyz
       COORD_FILE_FORMAT  XYZ
       NUMBER_OF_ATOMS  60
       MULTIPLE_UNIT_CELL  1 1 1
     &END TOPOLOGY
   &END SUBSYS
 &END FORCE_EVAL
