 # Version information for this restart file 
 # current date 2023-05-31 03:10:54.887
 # current working dir /work4/scd/scarf1157/work/masters/xiangzhuochun/pt3ni/yike-111/scarf/geo_opt/restart/Ni-1_Pt-0_yike_4e-2_4e-3_16_100_2000_8-8-1_pbe-d3_tzvp/NOTCONV_STOPALL_eps-5E-3_5E-4_4E-4_3E-4_2E-4_1E-4_5E-5_4E-5_3E-5_2E-5_1E-5_5E-6
 # Program compiled at                              Fri 26 May 21:18:31 BST 2023
 # Program compiled on                                     cn1108.scarf.rl.ac.uk
 # Program compiled for                                                    local
 # Source code revision number                                       git:dfe538b
 &GLOBAL
   PRINT_LEVEL  MEDIUM
   PROJECT_NAME Pt3Ni
   RUN_TYPE  GEO_OPT
 &END GLOBAL
 &MOTION
   &GEO_OPT
     TYPE  MINIMIZATION
     OPTIMIZER  BFGS
     MAX_ITER  200
     STEP_START_VAL  12
   &END GEO_OPT
   &PRINT
     &TRAJECTORY  ON
       UNIT angstrom
       FORMAT  XMOL
     &END TRAJECTORY
     &FORCES  SILENT
       UNIT hartree*bohr^-1
       FORMAT  XMOL
     &END FORCES
   &END PRINT
 &END MOTION
 &FORCE_EVAL
   METHOD  QS
   STRESS_TENSOR  ANALYTICAL
   &DFT
     BASIS_SET_FILE_NAME BASIS_MOLOPT_UCL
     POTENTIAL_FILE_NAME GTH_POTENTIALS
     UKS  T
     MULTIPLICITY  16
     NELEC_ALPHA     5.4750000000000000E+02
     NELEC_BETA     5.3250000000000000E+02
     CHARGE  0
     &SCF
       MAX_SCF  60
       EPS_SCF     5.0000000000000001E-03
       EPS_SCF_ARRAY     5.0000000000000001E-03    5.0000000000000001E-04    4.0000000000000002E-04    2.9999999999999997E-04 \
           2.0000000000000001E-04    1.0000000000000000E-04    5.0000000000000002E-05    4.0000000000000003E-05    3.0000000000000001E-05 \
           2.0000000000000002E-05    1.0000000000000001E-05    5.0000000000000004E-06
       SCF_GUESS  RESTART
       ADDED_MOS  100
       NOTCONV_STOPALL  T
       &DIAGONALIZATION  T
         ALGORITHM  STANDARD
       &END DIAGONALIZATION
       &OUTER_SCF  T
         EPS_SCF     5.0000000000000004E-06
         MAX_SCF  12
       &END OUTER_SCF
       &SMEAR  T
         METHOD  FERMI_DIRAC
         ELECTRONIC_TEMPERATURE     2.0000000000000000E+03
       &END SMEAR
       &MIXING  T
         METHOD  BROYDEN_MIXING
         ALPHA     4.0000000000000001E-02
         BETA     4.0000000000000001E-03
         NBUFFER  16
       &END MIXING
     &END SCF
     &QS
       EPS_DEFAULT     1.0000000000000000E-14
       METHOD  GPW
     &END QS
     &MGRID
       NGRIDS  4
       CUTOFF     5.0000000000000000E+02
       REL_CUTOFF     6.0000000000000000E+01
     &END MGRID
     &XC
       DENSITY_CUTOFF     1.0000000000000000E-10
       GRADIENT_CUTOFF     1.0000000000000000E-10
       TAU_CUTOFF     1.0000000000000000E-10
       &XC_FUNCTIONAL  NO_SHORTCUT
         &PBE  T
           PARAMETRIZATION  ORIG
         &END PBE
       &END XC_FUNCTIONAL
       &VDW_POTENTIAL
         POTENTIAL_TYPE  PAIR_POTENTIAL
         &PAIR_POTENTIAL
           TYPE  DFTD3(BJ)
           PARAMETER_FILE_NAME dftd3.dat
           REFERENCE_FUNCTIONAL PBE
         &END PAIR_POTENTIAL
       &END VDW_POTENTIAL
     &END XC
     &KPOINTS
       SCHEME MONKHORST-PACK 8 8 1
     &END KPOINTS
     &PRINT
       &E_DENSITY_CUBE  ON
       &END E_DENSITY_CUBE
       &HIRSHFELD  SILENT
         SHAPE_FUNCTION  DENSITY
       &END HIRSHFELD
     &END PRINT
   &END DFT
   &SUBSYS
     &CELL
       A     9.3780000000000001E+00    0.0000000000000000E+00    0.0000000000000000E+00
       B    -4.6890000000000001E+00    8.1219999999999999E+00    0.0000000000000000E+00
       C     0.0000000000000000E+00    0.0000000000000000E+00    2.9061899185200001E+01
       MULTIPLE_UNIT_CELL  1 1 1
     &END CELL
     &COORD
Pt_1   -3.0829635822980497E+00    5.4278005527828661E+00    8.0877059437637744E+00
Pt_1    1.6078332437080027E+00    5.4277000215531102E+00    8.0779625824921855E+00
Pt_1   -7.1038408245499551E-01    1.3688445587019935E+00    8.1316237516854830E+00
Pt_1    3.9779088420009554E+00    1.3648174609120105E+00    8.1314921264297713E+00
Pt_1    1.6041828459906728E+00    2.7244860619546860E+00    8.0762989123742095E+00
Pt_1    6.3009243018198866E+00    2.7232946432166614E+00    8.0703596742404695E+00
Pt_1    6.2960282903643865E+00    1.1591024033361737E-02    8.0779399766639397E+00
Pt_1    1.6106702271706621E+00    1.2573483858604278E-02    8.0727983501245308E+00
Pt_1   -7.0968493075995220E-01    6.7827757121141836E+00    8.1396864564327487E+00
Pt_1    3.9787036208056397E+00    6.7792909514735085E+00    8.1357481221848822E+00
Pt_1   -7.1153763249076529E-01    4.0738245820676813E+00    8.1349467196822687E+00
Pt_1    3.9776219695142094E+00    4.0766007868162424E+00    8.1323639527960552E+00
Ni_1    4.0795469451107839E-02    5.4326390590828169E+00    1.0331977556814392E+01
Ni_1    4.7321089522453077E+00    2.6959654565278131E+00    1.0296134625141960E+01
Ni_1    3.5627208315128320E-02    1.8369150420950175E-02    1.0307045755245005E+01
Ni_1    4.7012091228176915E+00    5.4229350793823228E+00    1.0374424471482621E+01
Pt_2   -2.2962788780369636E+00    4.0593937577627157E+00    1.0354546836626145E+01
Pt_2   -2.2991318736604676E+00    6.8081588031894889E+00    1.0353506061888192E+01
Ni_1    6.3196206910090353E-03    2.7116929269554508E+00    1.0373121624515392E+01
Ni_1    4.7165592276667585E+00    2.7911728510650161E-02    1.0371150372644085E+01
Pt_2    2.3896581319389623E+00    4.0935023157667132E+00    1.0352071506268810E+01
Pt_2    2.3719092461573448E+00    1.3591481993002519E+00    1.0344846346833860E+01
Pt_2    2.3869305455024374E+00    6.7650331243030708E+00    1.0352434694704794E+01
Pt_2    7.0671265275249135E+00    1.3823615014326380E+00    1.0345397011617496E+01
Pt_3   -3.8949771498304182E+00    6.7918040571248826E+00    1.2509377526126288E+01
Pt_3   -1.5541753610706441E+00    5.4396902840264652E+00    1.2500474273735598E+01
Ni_2   -1.5478586943137997E+00    2.7096805787405076E+00    1.2501298299746553E+01
Pt_3    7.8760112671572724E-01    4.0797401770032193E+00    1.2507956270260770E+01
Pt_3    7.8926662625831190E-01    1.3682380566408778E+00    1.2507029762172776E+01
Pt_3    7.9285630995769185E-01    6.7855640312250278E+00    1.2511509586388708E+01
Ni_2    3.1373420939766898E+00    6.0341843551661473E-02    1.2501853819994484E+01
Pt_3    3.1365821949051274E+00    2.7254159203850401E+00    1.2498889704702684E+01
Ni_2    3.1281961509426357E+00    5.4332378315780678E+00    1.2502327378912048E+01
Pt_3    5.4815074849992476E+00    4.0758527400097861E+00    1.2505872757535418E+01
Pt_3    5.4827767200018434E+00    1.3775628024062800E+00    1.2507100638585339E+01
Pt_3    7.8249853329965910E+00    1.7689621866889153E-02    1.2501186848458294E+01
Pt_4   -8.0923858720221220E-01    1.3866325972487392E+00    1.4660978816483581E+01
Pt_4    3.8713646713379246E+00    6.7716893407828147E+00    1.4658186713723452E+01
Pt_4    3.8840107305487077E+00    1.3668938706214115E+00    1.4666548411756581E+01
Pt_4    3.8666741072694810E+00    4.1009759408222024E+00    1.4657482419289401E+01
Ni_3    6.2322216835494384E+00    2.7187801696820775E+00    1.4677122979395957E+01
Pt_4   -8.2048089977020811E-01    6.8096464448952618E+00    1.4656774930089462E+01
Ni_3    1.5621447098156587E+00    2.5768557179629406E-02    1.4675142077325074E+01
Pt_4   -8.2773795695026664E-01    4.0635292074377718E+00    1.4654252414187718E+01
Ni_3    1.5315998534252548E+00    5.4169213011236437E+00    1.4676197028720457E+01
Ni_3    6.2119050222120276E+00    2.8263667876722829E-02    1.4678300924653405E+01
Ni_3   -3.1541968817474042E+00    5.4225337612563571E+00    1.4677880569148142E+01
Ni_3    1.5369210411839325E+00    2.7111603296743993E+00    1.4678271069247035E+01
Pt_5    2.2766990462828747E+00    4.0844700891018597E+00    1.6881515092971359E+01
Pt_5   -2.4126618638409338E+00    4.0846347539658865E+00    1.6880496045221843E+01
Pt_5    2.2755033560923827E+00    6.7921332797133136E+00    1.6872740267801042E+01
Pt_5   -2.4129611104090558E+00    6.7915494686624465E+00    1.6877013957808806E+01
Pt_5    4.6437883556606101E+00    2.2183527924408083E-02    1.6937117382192071E+01
Pt_5   -4.3533737155871728E-02    2.3240299213872315E-02    1.6932695654598458E+01
Pt_5   -4.3914253029857138E-02    2.7334651384861011E+00    1.6930291587696832E+01
Pt_5    4.6455319106378932E+00    2.7345149472200587E+00    1.6942254069956771E+01
Pt_5    6.9637051000026942E+00    1.3767992745618178E+00    1.6875267940806623E+01
Pt_5    2.2756364046858466E+00    1.3784397171514917E+00    1.6882156888480338E+01
Pt_5    4.6457035238234230E+00    5.4392744126522654E+00    1.6933563877927597E+01
Pt_5   -4.2818893275570875E-02    5.4378414855863220E+00    1.6929553943527630E+01
     &END COORD
     &KIND Pt_1
       BASIS_SET TZVP-MOLOPT-SR-GTH
       MAGNETIZATION     0.0000000000000000E+00
       MAGNETIZATION_N  5
       MAGNETIZATION_L  2
       POTENTIAL GTH-PBE-q18
       &POTENTIAL
 3 6 9
  0.5000000000000000E+00 2  0.8814323240000000E+01 -0.2925094300000000E+00
 3
  0.2980022100000000E+00 3 -0.5968384980000000E+01  0.2421289966000000E+02 -0.1378967932000000E+02
 -0.5368763413000000E+02  0.3560479890000000E+02
 -0.2826043301000000E+02
  0.3601718200000000E+00 3 -0.6668659040000000E+01  0.7170659220000000E+01  0.7669037000000000E+00
 -0.7207660720000000E+01 -0.1814825380000000E+01
  0.1289806040000000E+01
  0.3405320600000000E+00 2 -0.8589904550000000E+01  0.9410121999999999E+01
 -0.1067007542000000E+02
         # Potential name:  GTH-PBE-Q18  for symbol:  PT
         # Potential read from the potential filename: GTH_POTENTIALS
       &END POTENTIAL
     &END KIND
     &KIND Ni_1
       BASIS_SET TZVP-MOLOPT-SR-GTH
       MAGNETIZATION     1.0000000000000000E+00
       MAGNETIZATION_N  3
       MAGNETIZATION_L  2
       POTENTIAL GTH-PBE-q18
       &POTENTIAL
 4 6 8
  0.3500000000000000E+00 2  0.2102165980000000E+01  0.6484838700000000E+00
 3
  0.2612953000000000E+00 2  0.6226584700000000E+00  0.9970226670000001E+01
 -0.1287150729000000E+02
  0.2242534600000000E+00 2 -0.1114270822000000E+02  0.1242956644000000E+02
 -0.1470686134000000E+02
  0.2153482500000000E+00 1 -0.1262814550000000E+02
         # Potential name:  GTH-PBE-Q18  for symbol:  NI
         # Potential read from the potential filename: GTH_POTENTIALS
       &END POTENTIAL
     &END KIND
     &KIND Pt_2
       BASIS_SET TZVP-MOLOPT-SR-GTH
       MAGNETIZATION     0.0000000000000000E+00
       MAGNETIZATION_N  5
       MAGNETIZATION_L  2
       POTENTIAL GTH-PBE-q18
       &POTENTIAL
 3 6 9
  0.5000000000000000E+00 2  0.8814323240000000E+01 -0.2925094300000000E+00
 3
  0.2980022100000000E+00 3 -0.5968384980000000E+01  0.2421289966000000E+02 -0.1378967932000000E+02
 -0.5368763413000000E+02  0.3560479890000000E+02
 -0.2826043301000000E+02
  0.3601718200000000E+00 3 -0.6668659040000000E+01  0.7170659220000000E+01  0.7669037000000000E+00
 -0.7207660720000000E+01 -0.1814825380000000E+01
  0.1289806040000000E+01
  0.3405320600000000E+00 2 -0.8589904550000000E+01  0.9410121999999999E+01
 -0.1067007542000000E+02
         # Potential name:  GTH-PBE-Q18  for symbol:  PT
         # Potential read from the potential filename: GTH_POTENTIALS
       &END POTENTIAL
     &END KIND
     &KIND Ni_2
       BASIS_SET TZVP-MOLOPT-SR-GTH
       MAGNETIZATION     1.0000000000000000E+00
       MAGNETIZATION_N  3
       MAGNETIZATION_L  2
       POTENTIAL GTH-PBE-q18
       &POTENTIAL
 4 6 8
  0.3500000000000000E+00 2  0.2102165980000000E+01  0.6484838700000000E+00
 3
  0.2612953000000000E+00 2  0.6226584700000000E+00  0.9970226670000001E+01
 -0.1287150729000000E+02
  0.2242534600000000E+00 2 -0.1114270822000000E+02  0.1242956644000000E+02
 -0.1470686134000000E+02
  0.2153482500000000E+00 1 -0.1262814550000000E+02
         # Potential name:  GTH-PBE-Q18  for symbol:  NI
         # Potential read from the potential filename: GTH_POTENTIALS
       &END POTENTIAL
     &END KIND
     &KIND Pt_3
       BASIS_SET TZVP-MOLOPT-SR-GTH
       MAGNETIZATION     0.0000000000000000E+00
       MAGNETIZATION_N  5
       MAGNETIZATION_L  2
       POTENTIAL GTH-PBE-q18
       &POTENTIAL
 3 6 9
  0.5000000000000000E+00 2  0.8814323240000000E+01 -0.2925094300000000E+00
 3
  0.2980022100000000E+00 3 -0.5968384980000000E+01  0.2421289966000000E+02 -0.1378967932000000E+02
 -0.5368763413000000E+02  0.3560479890000000E+02
 -0.2826043301000000E+02
  0.3601718200000000E+00 3 -0.6668659040000000E+01  0.7170659220000000E+01  0.7669037000000000E+00
 -0.7207660720000000E+01 -0.1814825380000000E+01
  0.1289806040000000E+01
  0.3405320600000000E+00 2 -0.8589904550000000E+01  0.9410121999999999E+01
 -0.1067007542000000E+02
         # Potential name:  GTH-PBE-Q18  for symbol:  PT
         # Potential read from the potential filename: GTH_POTENTIALS
       &END POTENTIAL
     &END KIND
     &KIND Ni_3
       BASIS_SET TZVP-MOLOPT-SR-GTH
       MAGNETIZATION     1.0000000000000000E+00
       MAGNETIZATION_N  3
       MAGNETIZATION_L  2
       POTENTIAL GTH-PBE-q18
       &POTENTIAL
 4 6 8
  0.3500000000000000E+00 2  0.2102165980000000E+01  0.6484838700000000E+00
 3
  0.2612953000000000E+00 2  0.6226584700000000E+00  0.9970226670000001E+01
 -0.1287150729000000E+02
  0.2242534600000000E+00 2 -0.1114270822000000E+02  0.1242956644000000E+02
 -0.1470686134000000E+02
  0.2153482500000000E+00 1 -0.1262814550000000E+02
         # Potential name:  GTH-PBE-Q18  for symbol:  NI
         # Potential read from the potential filename: GTH_POTENTIALS
       &END POTENTIAL
     &END KIND
     &KIND Pt_4
       BASIS_SET TZVP-MOLOPT-SR-GTH
       MAGNETIZATION     0.0000000000000000E+00
       MAGNETIZATION_N  5
       MAGNETIZATION_L  2
       POTENTIAL GTH-PBE-q18
       &POTENTIAL
 3 6 9
  0.5000000000000000E+00 2  0.8814323240000000E+01 -0.2925094300000000E+00
 3
  0.2980022100000000E+00 3 -0.5968384980000000E+01  0.2421289966000000E+02 -0.1378967932000000E+02
 -0.5368763413000000E+02  0.3560479890000000E+02
 -0.2826043301000000E+02
  0.3601718200000000E+00 3 -0.6668659040000000E+01  0.7170659220000000E+01  0.7669037000000000E+00
 -0.7207660720000000E+01 -0.1814825380000000E+01
  0.1289806040000000E+01
  0.3405320600000000E+00 2 -0.8589904550000000E+01  0.9410121999999999E+01
 -0.1067007542000000E+02
         # Potential name:  GTH-PBE-Q18  for symbol:  PT
         # Potential read from the potential filename: GTH_POTENTIALS
       &END POTENTIAL
     &END KIND
     &KIND Pt_5
       BASIS_SET TZVP-MOLOPT-SR-GTH
       MAGNETIZATION     0.0000000000000000E+00
       MAGNETIZATION_N  5
       MAGNETIZATION_L  2
       POTENTIAL GTH-PBE-q18
       &POTENTIAL
 3 6 9
  0.5000000000000000E+00 2  0.8814323240000000E+01 -0.2925094300000000E+00
 3
  0.2980022100000000E+00 3 -0.5968384980000000E+01  0.2421289966000000E+02 -0.1378967932000000E+02
 -0.5368763413000000E+02  0.3560479890000000E+02
 -0.2826043301000000E+02
  0.3601718200000000E+00 3 -0.6668659040000000E+01  0.7170659220000000E+01  0.7669037000000000E+00
 -0.7207660720000000E+01 -0.1814825380000000E+01
  0.1289806040000000E+01
  0.3405320600000000E+00 2 -0.8589904550000000E+01  0.9410121999999999E+01
 -0.1067007542000000E+02
         # Potential name:  GTH-PBE-Q18  for symbol:  PT
         # Potential read from the potential filename: GTH_POTENTIALS
       &END POTENTIAL
     &END KIND
     &TOPOLOGY
       COORD_FILE_NAME struct.xyz
       COORD_FILE_FORMAT  XYZ
       NUMBER_OF_ATOMS  60
       MULTIPLE_UNIT_CELL  1 1 1
     &END TOPOLOGY
   &END SUBSYS
 &END FORCE_EVAL
